SCFRAMP 3.0000000000 1

CONTROL 0 1 1 1 1 1

EXCHANGE 0 0.0000000000 0.0000000000 0

DEBYE 10.0 315.0 5 corvus-Cx4Cx23Hx1H-SLLL-2ayd-cluster1.dym 16 0 3

RGRID 0.0100000000

EDGE K

SCF 9.0000000000 0 100 0.0500000000 0

EGRID
e_grid -200 -10.0000000000 20.0000000000
e_grid -10 10.0000000000 0.1000000000
k_grid last 20.0000000000 0.0250000000

CHSH 4

ABSOLUTE

ATOMS
0.0000000000 0.0000000000 0.0000000000 0 0.0000000000
-1.6190596213 -1.1598662653 0.4654513736 10 2.0453089722
0.9716339984 0.3001783542 1.7924061456 10 2.0608006847
-0.7638762010 1.9996667190 -0.8199383335 11 2.2922636646
1.3328970534 -1.2880162716 -1.3584721900 11 2.2980529067
2.2888296019 0.3650115676 1.8367007029 4 2.9572696636
-2.0307657522 0.4559796100 -2.1733990970 7 3.0092508337
-1.6357917130 1.7402592803 1.8402968925 7 3.0151301039
-1.6283218328 -2.4257049259 0.8254147031 4 3.0359159756
-2.9277375014 -0.7450467243 0.4427582884 3 3.0533221907
1.6404231699 0.8065291911 -2.5035833191 7 3.0999043449
2.9526072025 0.2575099131 0.9937460072 7 3.1259769312
0.5133825614 0.4696815189 3.0831607734 2 3.1607028867
-1.5768285498 1.4327872638 -2.3551076753 5 3.1758148216
-3.1912833637 0.2661732692 0.1766557359 7 3.2072332260
2.3082070587 -0.0135413394 -2.2302334193 5 3.2096642034
-0.7643217200 -3.0609542904 0.9391437342 7 3.2917502659
-1.3920515439 -0.4474290769 3.0618553844 7 3.3930751060
3.0551725762 0.3946963247 -1.5446116678 7 3.4461122825
-0.8176233421 1.2957659618 -3.1292917857 7 3.4842480448
-0.9283069977 0.4648830874 3.4476989922 5 3.6006247385
-1.6895259792 1.6793319387 2.9292859450 6 3.7756284168
2.6996305592 0.5711289552 3.0908638231 9 4.1433841980
-2.8884635340 -2.8316997525 1.0364579277 9 4.1756424789
-3.7412296098 -1.7815546431 0.7979056972 2 4.2198802638
1.5956850855 0.6390112923 3.8982761007 1 4.2604111165
-1.2742547446 2.6020591847 3.3423128530 7 4.4232897669
-2.7423705184 1.6202642056 3.2146718477 7 4.5254797806
-2.6305259617 2.4173319570 -2.8177140538 6 4.5500190235
2.9844740389 -0.5796680432 -3.4607140523 6 4.6064782731
-0.9981384837 0.4177064771 4.5371353032 7 4.6643709000
-3.4133959304 2.5325835840 -2.0639792060 7 4.7249615396
2.2461022535 -0.9640586986 -4.1688444539 7 4.8325612865
3.6596138124 0.6540008147 3.3863826339 8 5.0287252524
-2.1931980142 3.4024369920 -2.9999463435 7 5.0384891662
3.6557496656 -1.4011243616 -3.1972311048 7 5.0546950286
-3.1604779336 -3.7606775474 1.3196545380 8 5.0865316753
-3.0981241754 2.0771189698 -3.7470602679 7 5.2870840047
1.6693208581 0.7935615493 4.9617216145 7 5.2948138248
3.5746111767 0.1902475926 -3.9677658611 7 5.3438941924
-5.2123653750 -1.8719563993 0.9673737646 5 5.6221691156
-5.6513394652 -0.9679773689 0.5401752940 7 5.7590283282
-5.2878958857 -1.1683585976 3.0160182013 7 6.1986507001
-5.5958881326 -2.7156632899 0.3846117988 7 6.2319112103
-5.6335259386 -2.0196680233 2.4252859470 6 6.4573744936
-5.2169961610 -2.9285043281 2.8659471470 7 6.6337651144
-6.7209516287 -2.0747631522 2.5060231404 7 7.4669930302

POTENTIALS
0 30 Zn -1 5 1.0000000000
1 6 C -1 5 1 0.0000000000
2 6 C -1 5 2 0.0000000000
3 6 C -1 5 1 0.0000000000
4 6 C -1 5 2 0.0000000000
5 6 C -1 5 4 0.0000000000
6 6 C -1 5 4 0.0000000000
7 1 H -1 5 24 0.0000000000
8 1 H -1 5 2 0.0000000000
9 7 N -1 5 2 0.0000000000
10 7 N -1 5 2 0.0000000000
11 16 S -1 5 2 0.0000000000

FOLP 0 1.1500000000
FOLP 1 1.1500000000
FOLP 2 1.1500000000
FOLP 3 1.1500000000
FOLP 4 1.1500000000
FOLP 5 1.1500000000
FOLP 6 1.1500000000
FOLP 7 0.8000000000
FOLP 8 0.8000000000
FOLP 9 1.1500000000
FOLP 10 1.1500000000
FOLP 11 1.1500000000

PRINT 0 0 0 0 0 0

EXAFS 20

RPATH 9.0000000000

END