SCFRAMP 3.0000000000 1

CONTROL 0 1 1 1 1 1

EXCHANGE 0 0.0000000000 0.0000000000 0

DEBYE 10.0 315.0 5 corvus-Cx4Cx12Hx3H-LLHH-1a1h-cluster1.dym 16 0 3

RGRID 0.0100000000

EDGE K

SCF 9.0000000000 0 100 0.0500000000 0

EGRID
e_grid -200 -10.0000000000 20.0000000000
e_grid -10 10.0000000000 0.1000000000
k_grid last 20.0000000000 0.0250000000

CHSH 4

ABSOLUTE

ATOMS
0.0000000000 0.0000000000 0.0000000000 0 0.0000000000
1.9636806265 -0.4030192186 0.3558928598 9 2.0359582071
-0.2280366682 -0.1371332805 -2.0225064748 9 2.0399359547
-1.2496723653 -1.6636985427 0.9524426642 10 2.2883882735
-0.4046055189 2.1968629292 0.5002357855 10 2.2891369982
-0.7582065659 1.1279550899 2.6295813742 6 2.9600435951
2.8801078026 0.4921613342 0.6556229572 3 2.9945091744
-0.6711069861 0.8085132434 -2.8226085746 3 3.0118428606
-2.6846700327 -1.0764990538 -0.8933898472 6 3.0272840660
0.0075926125 -1.2404783994 -2.8051038615 1 3.0671569866
2.5912809775 -1.6249017771 0.3436825851 1 3.0778499977
-2.8475520171 -1.2366866007 0.1751048424 4 3.1094385256
-0.3142529748 2.0770377871 2.3201109389 4 3.1298171943
2.7140241922 1.5535014803 0.7524925398 6 3.2164482255
0.3792426325 -2.1631644486 -2.3886931794 6 3.2448359760
-0.9607066692 1.8048180066 -2.5283668841 6 3.2516095156
2.0569988131 -2.5355442076 0.1245698431 6 3.2673760408
-3.2008444660 -0.2909382104 0.5932443377 6 3.2683312534
0.7364067967 2.0564994410 2.6206449907 6 3.4116367169
4.0647954605 -0.1089057784 0.8316027620 8 4.1504199496
-0.7233729887 0.3540649046 -4.0823301262 8 4.1610154646
-0.2962950336 -0.9505837339 -4.1031926502 2 4.2222730971
3.9132271783 -1.4603864603 0.6398947167 2 4.2255817127
-1.0291789386 3.2308687014 2.9834172740 5 4.5164699141
-3.8791789268 -2.3221312715 0.3874172881 5 4.5376662441
-2.0883128047 3.2393684156 2.7144418952 6 4.7141014949
-3.5480222893 -3.2669381334 -0.0509773857 6 4.8232712578
-4.0573556280 -2.4913497512 1.4525437959 6 4.9778350469
-0.5985957480 4.1879874966 2.6773657171 6 5.0065800028
4.9248596089 0.3604355464 1.0711494526 7 5.0528721634
-1.0311370727 0.8867700968 -4.8816681870 7 5.0675723138
-0.9551029852 3.1608787044 4.0734486918 6 5.2436971824
-4.8320744711 -2.0477015898 -0.0759606606 6 5.2485993862
-0.1549386636 -1.7344655717 -5.3531867665 4 5.6292970579
5.0422487263 -2.4198559369 0.7079022138 4 5.6374728840
-0.0071839140 -2.7812236802 -5.0800681687 6 5.7915757240
4.6249235110 -3.4287634102 0.6980097584 6 5.7994442516
1.9502882933 -1.3203800670 -5.6520579749 6 6.1231354141
5.5236883785 -2.3955367164 -1.4049411076 6 6.1825228652
5.5662129774 -2.3021509542 1.6618135392 6 6.2485398426
-1.0844968309 -1.6829154821 -5.9286140471 6 6.2575396456
1.0108210581 -1.2431312805 -6.2035827102 5 6.4071501492
6.0238210473 -2.2461312775 -0.4455827112 5 6.4443828004
0.8731409543 -0.1988138217 -6.4932990968 6 6.5547566867
6.4600679769 -1.2445836368 -0.4435818830 6 6.5938025131
1.0988960187 -1.8365016053 -7.1160679281 6 7.4309308545
6.8391859102 -2.9681127990 -0.3674955398 6 7.4645301576

POTENTIALS
0 30 Zn -1 5 1.0000000000
1 6 C -1 5 2 0.0000000000
2 6 C -1 5 2 0.0000000000
3 6 C -1 5 2 0.0000000000
4 6 C -1 5 4 0.0000000000
5 6 C -1 5 4 0.0000000000
6 1 H -1 5 24 0.0000000000
7 1 H -1 5 2 0.0000000000
8 7 N -1 5 2 0.0000000000
9 7 N -1 5 2 0.0000000000
10 16 S -1 5 2 0.0000000000

FOLP 0 1.1500000000
FOLP 1 1.1500000000
FOLP 2 1.1500000000
FOLP 3 1.1500000000
FOLP 4 1.1500000000
FOLP 5 1.1500000000
FOLP 6 0.8000000000
FOLP 7 0.8000000000
FOLP 8 1.1500000000
FOLP 9 1.1500000000
FOLP 10 1.1500000000

PRINT 0 0 0 0 0 0

EXAFS 20

RPATH 9.0000000000

END