SCFRAMP 3.0000000000 1

CONTROL 0 1 1 1 1 1

EXCHANGE 0 0.0000000000 0.0000000000 0

DEBYE 10.0 315.0 5 corvus-CCx39Hx26H-LLLH-2eg3-cluster1.dym 16 0 3

RGRID 0.0100000000

EDGE K

SCF 9.0000000000 0 100 0.0500000000 0

EGRID
e_grid -200 -10.0000000000 20.0000000000
e_grid -10 10.0000000000 0.1000000000
k_grid last 20.0000000000 0.0250000000

CHSH 4

ABSOLUTE

ATOMS
0.0000000000 0.0000000000 0.0000000000 0 0.0000000000
-1.1976036642 1.2218916855 1.1422998075 9 2.0572123560
-0.6648446861 -1.8585686854 0.6540789323 9 2.0794507122
-0.3214753090 0.2419649822 -2.2600878083 10 2.2956241696
2.1316627973 0.3396586982 0.8063990924 10 2.3042642663
1.9265866048 1.0528170625 -2.0102898570 6 2.9768145764
0.1937166974 -2.8057744685 0.9797809875 3 2.9782322459
-1.0673481278 1.3452081722 2.4459731340 3 2.9885785291
2.5364649333 -1.2976244125 -0.9168662202 6 2.9930130537
-2.6186923877 -0.7590731467 -1.3287474165 6 3.0330366896
-2.3116077516 1.9480168739 0.7869214131 1 3.1237070043
1.2677523377 -2.7191231086 0.9539427768 6 3.1481475968
-1.9299739872 -2.3775632830 0.8443129641 2 3.1765501943
-0.2946655369 0.8974906546 3.0507396138 6 3.1936389034
1.3196315261 0.7664588386 -2.8712225766 4 3.2515850905
3.1457782955 -0.8725794557 -0.1182549170 4 3.2666956112
-2.6422094227 2.0063049318 -0.2371585138 6 3.3260749050
-3.1454632318 -0.6689599413 1.1316031892 6 3.4091013659
-3.1807098790 -1.6157809254 0.5851851839 4 3.6152600228
-3.4346957620 -1.3379327044 -0.8915703845 5 3.7923734849
3.4041981392 -1.6901779364 0.5597322430 6 3.8416879899
2.1804529932 -1.2073053789 -3.0899757614 6 3.9698755320
1.1744874638 1.6609096705 -3.4819167173 6 4.0325904531
-2.0481808763 2.1158806457 2.9345317371 8 4.1573395729
-0.4554715161 -3.9080925853 1.3658080806 8 4.1648617829
2.0193042393 -0.3049326698 -3.6835703738 5 4.2118005939
-2.8603175692 2.5162365920 1.9023241548 2 4.2581334377
-1.7998490217 -3.6616383155 1.2902418905 1 4.2792260738
4.1720069533 0.5353672265 -1.3983667395 6 4.4325714460
-3.5250977304 -2.2700797196 -1.4542845279 6 4.4378507670
4.4093042452 -0.2619326737 -0.6905703777 5 4.4707337316
-4.3579851384 -0.7686574885 -1.0196993160 6 4.5412174024
-4.0126974012 -2.1884721601 1.0021110425 6 4.6792496589
1.4262076587 -0.5831954531 -4.5584139443 6 4.8117899902
2.9938168315 0.0510527617 -4.0340161813 6 5.0238264457
5.0300374184 0.1649810505 0.1012745054 6 5.0337611885
-0.0232873089 -4.7670921527 1.6675199001 7 5.0503794420
-2.1664800872 2.3616401712 3.9055821372 7 5.0521829041
5.0004613637 -1.0199471358 -1.2141980329 6 5.2458729371
-2.5362753261 -4.4004130050 1.5590208079 6 5.3128968580
-4.0486394418 3.3820997872 2.1235403961 4 5.6867832836
-5.2344995592 2.6984359626 0.4438721065 6 5.9058077116
-4.2583224438 4.1305991893 0.1004090575 6 5.9334005155
-4.8596957650 3.6340673528 0.8654296306 5 6.1296049546
-4.6814920260 2.9172230655 2.8873601208 6 6.2260265395
-3.7165036199 4.3355625520 2.5492604376 6 6.2536573761
-5.7153973811 4.2722214571 1.0894498998 6 7.2183477671

POTENTIALS
0 30 Zn -1 5 1.0000000000
1 6 C -1 5 2 0.0000000000
2 6 C -1 5 2 0.0000000000
3 6 C -1 5 2 0.0000000000
4 6 C -1 5 4 0.0000000000
5 6 C -1 5 4 0.0000000000
6 1 H -1 5 24 0.0000000000
7 1 H -1 5 2 0.0000000000
8 7 N -1 5 2 0.0000000000
9 7 N -1 5 2 0.0000000000
10 16 S -1 5 2 0.0000000000

FOLP 0 1.1500000000
FOLP 1 1.1500000000
FOLP 2 1.1500000000
FOLP 3 1.1500000000
FOLP 4 1.1500000000
FOLP 5 1.1500000000
FOLP 6 0.8000000000
FOLP 7 0.8000000000
FOLP 8 1.1500000000
FOLP 9 1.1500000000
FOLP 10 1.1500000000

PRINT 0 0 0 0 0 0

EXAFS 20

RPATH 9.0000000000

END