SCFRAMP 3.0000000000 1

CONTROL 0 1 1 1 1 1

EXCHANGE 0 0.0000000000 0.0000000000 0

DEBYE 10.0 315.0 5 corvus-Cx2Cx7Hx3H-HHHH-1svl-cluster2.dym 16 0 3

RGRID 0.0100000000

EDGE K

SCF 9.0000000000 0 100 0.0500000000 0

EGRID
e_grid -200 -10.0000000000 20.0000000000
e_grid -10 10.0000000000 0.1000000000
k_grid last 20.0000000000 0.0250000000

CHSH 4

ABSOLUTE

ATOMS
0.0000000000 0.0000000000 0.0000000000 0 0.0000000000
0.3795591767 -1.8438130552 0.7792977642 10 2.0374044165
1.4540650258 1.1510534495 0.9005990817 10 2.0616274758
0.5251125959 -0.0944383439 -2.2252015463 11 2.2882709107
-2.0936686702 0.7366414696 0.5641394244 11 2.2900529351
-0.8644120682 1.8686521180 -2.1153161339 7 2.9518860595
2.4538560745 1.6767948834 0.2200098531 4 2.9801770167
1.4276997438 -2.6095413493 0.5632544867 4 3.0274227040
-0.3794119274 -2.4686261706 1.7358860834 3 3.0416063314
0.0317533386 1.6030633617 -2.6810375947 5 3.1239050883
-2.3005174882 -1.9546158208 -0.8126617712 7 3.1262314174
1.6236387473 1.5127024448 2.2195089204 2 3.1385810992
2.6121683830 1.5674994796 -0.8412559513 7 3.1604097607
-2.6084730699 0.3392344847 -1.7544119695 7 3.1618306644
-3.0849756351 0.0564134456 -0.8128460508 5 3.1907641481
-1.3000664492 -2.0364148271 2.0937098349 7 3.1969953070
2.2239725758 -2.4145493440 -0.1374587285 7 3.2855741438
0.6166089783 -0.0059516264 3.2846758148 7 3.3420558437
-0.3239529304 1.4433185733 3.0337276118 7 3.3751469935
0.8204422830 2.2976901631 -2.3802069215 7 3.4085026939
0.6808080165 1.0877211892 3.2874633105 5 3.5290298891
-3.2670435557 -1.4475317473 -0.7568724638 6 3.6526398235
-3.7509680125 -1.7498879339 0.1750510375 7 4.1427661867
3.2574055924 2.3614404823 1.0385032624 9 4.1551872847
1.3682639783 -3.6948156523 1.3483422694 9 4.1643529983
-4.0562567414 0.5559299854 -0.7767852089 7 4.1672139568
0.2265760552 -3.6326588943 2.1075344488 2 4.2058588664
2.7546784515 2.2730486170 2.3104991245 1 4.2536348680
-0.2280435543 1.7204682506 -4.1638724618 6 4.5110806623
-3.8835232566 -1.7944176252 -1.5926774061 7 4.5648996504
-1.0397504791 1.0561697776 -4.4709965921 7 4.7102426885
0.6606199565 1.4516125123 -4.7410604725 7 5.0021247502
1.0779564471 1.5834682735 4.6661275394 6 5.0440170588
4.0902684584 2.8574356582 0.7625677729 8 5.0474492777
2.0502543733 -4.4380607389 1.3688002206 8 5.0767647338
-0.5070540508 2.7447563669 -4.4314284345 7 5.2372081584
3.2369318426 2.7469099162 3.1482465090 7 5.2853285539
2.0634657352 1.2076639134 4.9517497710 7 5.4987424711
1.1117326780 2.6751518419 4.6995731846 7 5.5207223297
0.3593547727 1.2464269625 5.4147852254 7 5.5679991975
-0.0948279529 -4.6112487573 3.1724068623 5 5.5979257536
-1.1696804818 -4.5740037481 3.3612198956 7 5.7954690840
0.4205532240 -3.3036363519 4.8185647887 7 5.8574264642
0.6719564456 -4.3015317712 4.4531275381 6 6.2277641184
0.1359679200 -5.6238639850 2.8292179056 7 6.2968887043
1.7502649859 -4.3374939113 4.2817616324 7 6.3411957570
0.4296259315 -5.0247354450 5.2349793371 7 7.2689444483

POTENTIALS
0 30 Zn -1 5 1.0000000000
1 6 C -1 5 1 0.0000000000
2 6 C -1 5 2 0.0000000000
3 6 C -1 5 1 0.0000000000
4 6 C -1 5 2 0.0000000000
5 6 C -1 5 4 0.0000000000
6 6 C -1 5 4 0.0000000000
7 1 H -1 5 24 0.0000000000
8 1 H -1 5 2 0.0000000000
9 7 N -1 5 2 0.0000000000
10 7 N -1 5 2 0.0000000000
11 16 S -1 5 2 0.0000000000

FOLP 0 1.1500000000
FOLP 1 1.1500000000
FOLP 2 1.1500000000
FOLP 3 1.1500000000
FOLP 4 1.1500000000
FOLP 5 1.1500000000
FOLP 6 1.1500000000
FOLP 7 0.8000000000
FOLP 8 0.8000000000
FOLP 9 1.1500000000
FOLP 10 1.1500000000
FOLP 11 1.1500000000

PRINT 0 0 0 0 0 0

EXAFS 20

RPATH 9.0000000000

END