SCFRAMP 3.0000000000 1

CONTROL 0 1 1 1 1 1

EXCHANGE 0 0.0000000000 0.0000000000 0

DEBYE 10.0 315.0 5 corvus-Cx2Cx66Hx50H-LLLL-1z84-cluster1.dym 16 0 3

RGRID 0.0100000000

EDGE K

SCF 9.0000000000 0 100 0.0500000000 0

EGRID
e_grid -200 -10.0000000000 20.0000000000
e_grid -10 10.0000000000 0.1000000000
k_grid last 20.0000000000 0.0250000000

CHSH 4

ABSOLUTE

ATOMS
0.0000000000 0.0000000000 0.0000000000 0 0.0000000000
-1.7935051359 0.6178295290 -0.8173185534 9 2.0655226015
-0.3750537255 -1.9711011687 0.5094344565 9 2.0701276723
1.5960068507 0.1063344577 -1.6500755679 10 2.2981066694
0.2485842511 1.1523934840 1.9762118606 10 2.3011341095
-2.6843955430 1.2586367501 -0.0854428912 3 2.9660489523
0.3410945538 -2.9666567223 0.0219497632 3 2.9862818679
-1.9462352162 -0.6827473515 2.1675305264 6 2.9920167188
-1.0175716263 -1.9725573176 -2.1402644098 6 3.0833692821
-0.4571132989 3.0166422317 0.6150652392 6 3.1124569348
-2.5654799230 1.5190271157 0.9546315205 6 3.1305673533
3.0582353553 0.6882159608 0.1755396354 6 3.1396271850
-1.3027532431 -2.5197478915 1.3711632142 2 3.1506164491
-2.3263177729 0.4861407867 -2.0837781938 2 3.1607307392
1.1479384734 -2.8689731371 -0.6862980040 6 3.1654027469
0.2280415478 2.9049150211 1.4585924171 4 3.2585312745
3.1895946917 0.1405739510 -0.7601804149 4 3.2819429605
-0.6045925272 0.2337799174 -3.2805462245 6 3.3439749856
2.0162996569 2.9137718120 0.2493748629 6 3.5521427760
-2.3192359479 -1.7078724400 2.0961656044 4 3.5622456252
-1.6141135027 -0.1820827663 -3.2056408025 4 3.5936957979
3.1116101390 -1.8052815984 0.1768742608 6 3.6017278924
-1.5254282898 -1.6977359413 -3.0653778580 5 3.8217509346
-3.6345083947 -1.3621569960 0.4026839893 6 3.9022144159
1.5925717096 3.4552640578 1.0986221418 5 3.9600637582
3.7625717096 -1.2357359416 -0.4903778578 5 3.9905462822
-3.7656745988 1.5416994068 -0.8167406109 8 4.1502057142
-0.0810964527 -4.1284296828 0.5284184922 8 4.1628997566
-0.1963478795 3.4724915855 2.2903867894 6 4.1644473758
3.8818643280 0.7190463513 -1.3767921494 6 4.1810829864
-1.1172961505 -3.8736549338 1.3854441517 1 4.2629812024
-3.5638882646 1.0634160061 -2.0842690443 1 4.2633708041
-3.6934282888 -1.7217359411 1.4326221418 5 4.3195130949
-2.4083537425 -2.0835745473 3.1190766045 6 4.4575878575
3.8739996047 -1.8030459734 -1.4175232177 6 4.5020239662
-2.5216402276 -2.1467017072 -3.0515602157 6 4.5032230022
2.2860013870 3.3613414742 1.9377346398 6 4.5032470931
-0.9671405224 -2.1275615276 -3.8996531355 6 4.5463362636
-2.1312670311 0.0743555062 -4.1334379315 6 4.6511436264
1.5241296383 4.5142343439 0.8282991914 6 4.8360482231
4.7468638544 -1.1589638556 -0.0164230070 6 4.8863261645
-4.3898727128 -1.0801083190 1.9770314040 6 4.9341939147
-4.5841387107 2.0287026695 -0.4870419917 7 5.0365833798
0.3082571687 -5.0342782204 0.3191018347 7 5.0537912168
-4.1053231804 -2.7332841016 1.4120804679 6 5.1301551286
-1.6232098759 -4.6584109545 1.9226735502 6 5.2945515866
-4.2970692808 1.1766509503 -2.8652100180 6 5.2970501518

POTENTIALS
0 30 Zn -1 5 1.0000000000
1 6 C -1 5 2 0.0000000000
2 6 C -1 5 2 0.0000000000
3 6 C -1 5 2 0.0000000000
4 6 C -1 5 4 0.0000000000
5 6 C -1 5 4 0.0000000000
6 1 H -1 5 24 0.0000000000
7 1 H -1 5 2 0.0000000000
8 7 N -1 5 2 0.0000000000
9 7 N -1 5 2 0.0000000000
10 16 S -1 5 2 0.0000000000

FOLP 0 1.1500000000
FOLP 1 1.1500000000
FOLP 2 1.1500000000
FOLP 3 1.1500000000
FOLP 4 1.1500000000
FOLP 5 1.1500000000
FOLP 6 0.8000000000
FOLP 7 0.8000000000
FOLP 8 1.1500000000
FOLP 9 1.1500000000
FOLP 10 1.1500000000

PRINT 0 0 0 0 0 0

EXAFS 20

RPATH 9.0000000000

END