SCFRAMP 3.0000000000 1

CONTROL 0 1 1 1 1 1

EXCHANGE 0 0.0000000000 0.0000000000 0

DEBYE 10.0 315.0 5 corvus-1bto-4cys-charge--3.dym 16 0 3

RGRID 0.0100000000

EDGE K

SCF 9.0000000000 0 100 0.0500000000 0

EGRID
e_grid -200 -10.0000000000 20.0000000000
e_grid -10 10.0000000000 0.1000000000
k_grid last 20.0000000000 0.0250000000

CHSH 4

ABSOLUTE

ATOMS
0.0000000000 0.0000000000 0.0000000000 0 0.0000000000
-1.1622990877 -2.1356040069 0.3717399431 4 2.4596614054
0.1430440603 0.8269735653 -2.3287173581 4 2.4753325867
2.2940219863 -0.9518063312 -0.0412677220 4 2.4839837339
0.4710640724 1.4741751095 1.9573732842 4 2.4952762948
2.7739884280 1.3611150249 -0.4799897137 3 3.1269851351
-1.8794360662 1.8275321650 1.7118144409 3 3.1308884396
-2.0384254897 1.6152945818 -1.7555594503 3 3.1378884695
3.3852737647 0.5024061763 -0.1902232359 1 3.4276340685
-1.3276011570 1.8768627000 -2.5557639020 1 3.4375961877
-1.0945299822 2.3432960345 2.2891070357 1 3.4538446995
0.9180269001 -3.3338682487 0.6155129663 3 3.5123079450
-0.0562816647 -3.5957372573 0.1958091535 1 3.6015045848
0.5290314668 -3.2489113816 -1.8506893125 3 3.7762879114
-0.5899519388 3.6265430877 -1.5333693857 3 3.9813414485
3.4589282619 1.0395034190 1.8968682867 3 4.0795663220
-0.8889771264 3.9292681181 0.8402117048 3 4.1152623226
4.0893516455 0.3247903546 -1.0089592701 3 4.2244862958
0.1069574955 -4.0517032750 -1.2403602271 2 4.2386593196
-1.3421032092 2.2319233635 3.3489614328 3 4.2424362815
-1.8002036928 1.6242185807 -3.5096000575 3 4.2656900845
-1.0229581522 3.3609772020 -2.5018881861 2 4.3130100428
4.1505351761 0.8196104367 1.0798988476 2 4.3663354242
-1.0709779704 3.8118147849 1.9123256483 2 4.3970348136
-0.4659395922 -4.4080283501 0.8040556498 3 4.5049216560
-0.8572214666 -4.3298754938 -1.6744787539 3 4.7208611007
-0.3032691035 3.6428723398 -3.2752229537 3 4.9081133269
4.7729308741 -0.0267736092 1.3832004401 3 4.9693892394
-0.2769567968 4.3431224512 2.4439837527 3 4.9912397536
-1.9305217866 3.9589342824 -2.6448644258 3 5.1376437062
0.7745260345 -4.9182957213 -1.3110474742 3 5.1486278619
4.8037211390 1.6889026103 0.9406481069 3 5.1781220215
-2.0249307319 4.2968296568 2.1501020053 3 5.2140222672

POTENTIALS
0 30 Zn -1 5 1.0000000000
1 6 C -1 5 4 0.0000000000
2 6 C -1 5 4 0.0000000000
3 1 H -1 5 20 0.0000000000
4 16 S -1 5 4 0.0000000000

FOLP 0 1.1500000000
FOLP 1 1.1500000000
FOLP 2 1.1500000000
FOLP 3 0.8000000000
FOLP 4 1.1500000000

PRINT 0 0 0 0 0 0

EXAFS 20

RPATH 9.0000000000

END