SCFRAMP 3.0000000000 1

CONTROL 0 1 1 1 1 1

EXCHANGE 0 0.0000000000 0.0000000000 0

DEBYE 10.0 315.0 5 corvus-Cx2Cx12Hx3H-LLHH-1a1g-cluster2.dym 16 0 3

RGRID 0.0100000000

EDGE K

SCF 9.0000000000 0 100 0.0500000000 0

EGRID
e_grid -200 -10.0000000000 20.0000000000
e_grid -10 10.0000000000 0.1000000000
k_grid last 20.0000000000 0.0250000000

CHSH 4

ABSOLUTE

ATOMS
0.0000000000 0.0000000000 0.0000000000 0 0.0000000000
0.8538097060 0.9305556736 -1.6125153151 9 2.0482017765
-1.6945234155 1.1324721831 0.3035218849 9 2.0605893297
-0.7296078142 -2.0706037424 -0.6677543947 10 2.2946946098
1.3719782548 0.3444815271 1.8079981077 10 2.2956151707
1.7325811824 1.9079340912 -1.5508987941 3 3.0078791730
-1.8123859651 2.2428244815 0.9998238921 3 3.0519915394
-2.9232889624 0.8900631083 -0.2616428394 1 3.0669671779
0.5715696521 0.7365637859 -2.9431921095 1 3.0873285979
-1.6220070584 -2.5482512708 0.8544249533 4 3.1391931188
-2.3547477130 -1.7718577611 1.0882887406 6 3.1414469756
3.1381133433 0.0675371154 0.1859253031 6 3.1443417174
-0.9099418235 -2.5802306113 1.6828836359 6 3.2121147958
-3.0931697836 0.0254848482 -0.8837248885 6 3.2170356644
2.9759137526 -0.2935519633 1.2039776311 4 3.2236311133
2.1649381305 2.3108569498 -0.6485884226 6 3.2322877182
-0.1295069506 -0.0143241381 -3.2711584136 6 3.2737523728
-1.0315731350 2.7182158554 1.5721505321 6 3.3052228162
2.3396335206 -2.2727547345 0.6149008745 6 3.3192472308
3.0971740180 -1.8038758676 1.2477100966 5 3.7951594866
2.0214390339 2.3428132226 -2.7852934464 8 4.1632738496
3.7472025121 0.1623435798 1.8295840790 6 4.1731594754
-3.0632517249 2.7162908820 0.9006692637 8 4.1920105448
-3.7977704836 1.8734978324 0.1022851379 2 4.2359788744
1.2958571279 1.6149200622 -3.6966515028 2 4.2370325507
2.9617602667 -2.1764614102 2.2659136834 6 4.3177972357
-2.3128259791 -3.8878758686 0.7057100956 5 4.5785117143
4.0835249063 -2.1223320055 0.8946465159 6 4.6882684640
-3.0437621489 -3.8627810618 -0.1064788048 6 4.9190347921
-1.5912279846 -4.6780741681 0.4832706823 6 4.9648700863
2.6704659116 3.0833532816 -3.0035641962 7 5.0655555988
-3.4060310781 3.5518622827 1.3495309862 7 5.1027450713
-2.8376660516 -4.1562745808 1.6276930031 6 5.2892675791
-5.2282554729 2.1006009967 -0.2268521935 4 5.6390284407
1.3543620982 1.8565390337 -5.1599369786 4 5.6485381737
-5.5864830895 1.2168690531 -0.7590193863 6 5.7676402480
0.7726914745 1.0721076238 -5.6484149458 6 5.8009532210
-5.8063801708 2.1637616302 0.7010933998 6 6.2359800381
-0.2164700442 3.3489181933 -5.2585469185 6 6.2381429961
2.3873406675 1.7446480440 -5.5057179694 6 6.2494897886
-4.9378697059 3.2931465961 -2.0162069109 6 6.2683699670
0.8261740213 3.2301241322 -5.5612899063 5 6.4841507419
-5.4738259739 3.3511241274 -1.0662899024 5 6.5061338647
1.4073792451 4.0282185544 -5.0936201166 6 6.6447142116
-5.1394131887 4.2501535736 -0.5433107498 6 6.6912300734
0.8866921949 3.3607710374 -6.6434231409 6 7.4977380618
-6.5387142557 3.4627493817 -1.2789258018 6 7.5087328228

POTENTIALS
0 30 Zn -1 5 1.0000000000
1 6 C -1 5 2 0.0000000000
2 6 C -1 5 2 0.0000000000
3 6 C -1 5 2 0.0000000000
4 6 C -1 5 4 0.0000000000
5 6 C -1 5 4 0.0000000000
6 1 H -1 5 24 0.0000000000
7 1 H -1 5 2 0.0000000000
8 7 N -1 5 2 0.0000000000
9 7 N -1 5 2 0.0000000000
10 16 S -1 5 2 0.0000000000

FOLP 0 1.1500000000
FOLP 1 1.1500000000
FOLP 2 1.1500000000
FOLP 3 1.1500000000
FOLP 4 1.1500000000
FOLP 5 1.1500000000
FOLP 6 0.8000000000
FOLP 7 0.8000000000
FOLP 8 1.1500000000
FOLP 9 1.1500000000
FOLP 10 1.1500000000

PRINT 0 0 0 0 0 0

EXAFS 20

RPATH 9.0000000000

END