SCFRAMP 3.0000000000 1

CONTROL 0 1 1 1 1 1

EXCHANGE 0 0.0000000000 0.0000000000 0

DEBYE 10.0 315.0 5 corvus-Cx18Cx4Hx55H-LSSL-1eh6-cluster1.dym 16 0 3

RGRID 0.0100000000

EDGE K

SCF 9.0000000000 0 100 0.0500000000 0

EGRID
e_grid -200 -10.0000000000 20.0000000000
e_grid -10 10.0000000000 0.1000000000
k_grid last 20.0000000000 0.0250000000

CHSH 4

ABSOLUTE

ATOMS
0.0000000000 0.0000000000 0.0000000000 0 0.0000000000
0.9178127542 1.5160775066 1.0143682441 10 2.0420122899
-1.6790779657 0.8629881267 -0.8348969332 10 2.0642442227
1.3996336246 -0.6383765019 -1.7012667761 11 2.2936450216
-0.6911873732 -1.4780510000 1.6154740235 11 2.2961121628
-0.9287052695 -2.7836173459 -0.3999454810 7 2.9615832579
-2.8127838885 0.1953452253 -0.9304657104 4 2.9691209808
2.0448766961 2.1707237565 0.5847686147 3 3.0389992863
0.5321986564 2.1097109524 2.1237822779 4 3.0404879340
3.0038921109 -0.5626477052 0.1023875155 7 3.0578462122
-2.9829869525 -0.8091817780 -0.5770900695 7 3.1442040737
-1.8904855641 2.1058312090 -1.3956429836 2 3.1553573627
2.5524656148 1.8789139289 -0.3209170398 7 3.1856531534
2.8646333598 -1.2108399599 -0.7657233913 5 3.2029033714
-1.0796691611 -2.9887632168 0.6618181061 5 3.2459812490
-0.3210757372 1.8406594692 2.7258610582 7 3.3047595100
0.0319983574 2.7443689184 -1.9972564805 7 3.3943509106
-0.4759399850 3.3499847989 -0.4433974916 7 3.4125530557
2.6673356168 -2.2168025189 -0.3878261338 7 3.4898856443
-0.8318935568 3.1490360848 -1.4584318471 5 3.5686830352
-2.1397367042 -3.2151904403 0.8001918407 7 3.9441386528
-3.7418444488 0.9467327039 -1.5268730305 9 4.1507883520
0.8269334877 -3.9674769677 0.9195322757 7 4.1557468749
1.3657310130 3.1190586811 2.4141467349 9 4.1739492945
2.3421156840 3.1815464916 1.4508694939 2 4.2086537329
-3.1844213401 2.1611901450 -1.8299700688 1 4.2614636649
-0.2335272290 -4.1682286879 1.0918288614 6 4.3151773572
4.1164727686 -1.2072286865 -1.6221711383 6 4.5863044337
4.3445042753 -0.1982312637 -1.9745674284 7 4.7762882620
-0.3663656054 -4.3772158043 2.1563319245 7 4.8932616242
-4.6909941124 0.6652770516 -1.7153787646 8 5.0389030179
3.9934431452 -1.8493532119 -2.4980809401 7 5.0604450238
-1.2965272134 4.4417713137 -2.1061711280 6 5.0839228986
1.2882530135 3.7259765037 3.2161138167 8 5.0878172937
-0.5064970838 -5.0690744723 0.5320598660 7 5.1220252833
-3.7466148469 2.9418267070 -2.3131067944 7 5.2954631740
4.9753734877 -1.5725743146 -1.0508973404 7 5.3227546005
-1.6237663981 4.2762640735 -3.1355572942 7 5.5456984490
-2.1309690418 4.8817648687 -1.5546977458 7 5.5488505450
3.3853315582 4.2341618529 1.4164931988 5 5.6031285313
-0.4840156558 5.1699620111 -2.1241799683 7 5.6102512323
4.1954304165 3.8866558770 0.7720314019 7 5.7709412379
2.4492832993 5.4481262813 -0.1141351812 7 5.9744535730
3.8081946631 4.3673705728 2.4167764759 7 6.2783023857
2.8394727566 5.5607713076 0.8998288513 6 6.3082862200
2.0288190536 5.9249122199 1.5352164644 7 6.4480680175
3.6236154684 6.3206724131 0.8836075334 7 7.3390906173

POTENTIALS
0 30 Zn -1 5 1.0000000000
1 6 C -1 5 1 0.0000000000
2 6 C -1 5 2 0.0000000000
3 6 C -1 5 1 0.0000000000
4 6 C -1 5 2 0.0000000000
5 6 C -1 5 4 0.0000000000
6 6 C -1 5 4 0.0000000000
7 1 H -1 5 24 0.0000000000
8 1 H -1 5 2 0.0000000000
9 7 N -1 5 2 0.0000000000
10 7 N -1 5 2 0.0000000000
11 16 S -1 5 2 0.0000000000

FOLP 0 1.1500000000
FOLP 1 1.1500000000
FOLP 2 1.1500000000
FOLP 3 1.1500000000
FOLP 4 1.1500000000
FOLP 5 1.1500000000
FOLP 6 1.1500000000
FOLP 7 0.8000000000
FOLP 8 0.8000000000
FOLP 9 1.1500000000
FOLP 10 1.1500000000
FOLP 11 1.1500000000

PRINT 0 0 0 0 0 0

EXAFS 20

RPATH 9.0000000000

END