SCFRAMP 3.0000000000 1

CONTROL 0 1 1 1 1 1

EXCHANGE 0 0.0000000000 0.0000000000 0

DEBYE 10.0 315.0 5 corvus-Hx1Hx1Cx35C-HLHH-2glz-cluster2.dym 16 0 3

RGRID 0.0100000000

EDGE K

SCF 9.0000000000 0 100 0.0500000000 0

EGRID
e_grid -200 -10.0000000000 20.0000000000
e_grid -10 10.0000000000 0.1000000000
k_grid last 20.0000000000 0.0250000000

CHSH 4

ABSOLUTE

ATOMS
0.0000000000 0.0000000000 0.0000000000 0 0.0000000000
-0.7413602343 1.5976124647 1.0704672786 10 2.0610387621
-0.8480925222 0.5819243491 -1.7905671367 10 2.0649521897
-1.0529915549 -1.9863266545 0.4827899372 11 2.2994283891
2.2809074057 0.2986661445 0.1047978099 11 2.3027641304
-0.1099282708 2.7519213348 1.0571561140 4 2.9500397128
1.7469883936 -0.4085286879 2.3549997571 7 2.9605553520
-2.2150077218 0.6189863773 -1.9426135320 3 3.0105067144
-1.1193463221 -2.0822187043 -1.9250562703 7 3.0486739027
-0.3334084079 1.0884272316 -2.8888283195 4 3.1050223935
-2.8741049446 0.2537343997 -1.1723393865 7 3.1143602899
0.8959717758 2.9089615550 0.7031761095 7 3.1239845378
-1.9959818440 1.8408752186 1.5750595673 1 3.1390408938
-0.8862977551 -2.8099732705 -1.1451627969 5 3.1611503164
2.5852599226 0.1306387643 1.9081765582 5 3.2158627352
0.1558392648 -3.1086194599 -1.2812391286 7 3.3659136245
-2.7294857788 1.0572078232 1.6786093133 7 3.3742421704
0.7166471025 1.2132507533 -3.1009504688 7 3.4060907607
1.9118781586 2.0655256638 2.6300276866 7 3.8521059167
3.4670508592 -0.5041278563 2.0212620773 7 4.0447604306
2.8095260760 1.4464432219 2.6350506449 6 4.1145019950
-0.9042959019 3.7166248875 1.5369246397 9 4.1222795854
-2.5271851136 1.1600287037 -3.1560776730 2 4.2063235099
-1.3138514144 1.4455739814 -3.7334293518 9 4.2135951870
-2.1169868191 3.1677482827 1.8734834094 2 4.2457275537
-1.7954739242 -4.0175567784 -1.2759493575 6 4.5817612163
3.6175972115 2.0164508043 2.1700746476 7 4.6757146413
-2.8445913825 -3.7292217011 -1.1729497928 7 4.8347291388
3.0830607427 1.2583836947 3.6784611581 7 4.9618413475
-0.6463963958 4.6866554497 1.6333060534 8 5.0050231038
-1.5745494309 -4.7629667910 -0.5077038731 7 5.0421048963
-1.1770992520 1.8587399781 -4.6432565622 8 5.1381230481
-1.6654458198 -4.4895316858 -2.2545764309 7 5.2927043578
-3.8278691295 1.4379895600 -3.8204758191 5 5.5961086061
-3.2542764396 3.9901327343 2.3496411825 5 5.6597074191
-5.0063038401 1.7310290346 -2.0238924764 7 5.6705978886
-5.0447392364 0.0780981114 -2.6480373115 7 5.6980342998
-4.0782813555 3.3179881600 2.5968292852 7 5.8638678857
-5.0264739303 1.1314432074 -2.9369493707 6 5.9305375397
-3.9917634782 4.4967817421 0.3761761067 7 6.0246767685
-3.8499405111 2.4893379631 -4.1270827790 7 6.1686025726
-3.8878026315 0.8540004264 -4.7456301007 7 6.1939753860
-2.9788174936 4.5098828519 3.2731603642 7 6.3187004809
-3.6924739203 5.0024432391 1.2970506589 6 6.3514677379
-2.8858005107 5.6974118979 1.0538798026 7 6.4729444274
-5.9530322905 1.3523575274 -3.4683593934 7 7.0211808990
-4.5404938947 5.5887134833 1.6568673422 7 7.3888437929

POTENTIALS
0 30 Zn -1 5 1.0000000000
1 6 C -1 5 1 0.0000000000
2 6 C -1 5 2 0.0000000000
3 6 C -1 5 1 0.0000000000
4 6 C -1 5 2 0.0000000000
5 6 C -1 5 4 0.0000000000
6 6 C -1 5 4 0.0000000000
7 1 H -1 5 24 0.0000000000
8 1 H -1 5 2 0.0000000000
9 7 N -1 5 2 0.0000000000
10 7 N -1 5 2 0.0000000000
11 16 S -1 5 2 0.0000000000

FOLP 0 1.1500000000
FOLP 1 1.1500000000
FOLP 2 1.1500000000
FOLP 3 1.1500000000
FOLP 4 1.1500000000
FOLP 5 1.1500000000
FOLP 6 1.1500000000
FOLP 7 0.8000000000
FOLP 8 0.8000000000
FOLP 9 1.1500000000
FOLP 10 1.1500000000
FOLP 11 1.1500000000

PRINT 0 0 0 0 0 0

EXAFS 20

RPATH 9.0000000000

END