SCFRAMP 3.0000000000 1

CONTROL 0 1 1 1 1 1

EXCHANGE 0 0.0000000000 0.0000000000 0

DEBYE 10.0 315.0 5 corvus-zn-1his-eps-charge-3.dym 16 0 3

RGRID 0.0100000000

EDGE K

SCF 9.0000000000 0 100 0.0500000000 0

EGRID
e_grid -200 -10.0000000000 20.0000000000
e_grid -10 10.0000000000 0.1000000000
k_grid last 20.0000000000 0.0250000000

CHSH 4

ABSOLUTE

ATOMS
0.0000000000 0.0000000000 0.0000000000 0 0.0000000000
-1.2368538199 0.9030885263 -1.1949301206 9 1.9424814674
-2.4296596651 1.3947853706 -0.8619191006 1 2.9311391735
-1.0421416031 1.1660628268 -2.5001642876 3 2.9489969654
-2.8471366192 1.3344599152 0.1328690364 6 3.1471613200
-0.1684605894 0.8963248040 -3.0766378161 6 3.2089682728
-2.1049262226 1.8186038179 -2.9947160206 8 4.0873412254
-3.0182751881 2.0029539040 -2.0316771279 2 4.1532543150
-2.1945808844 2.1252308025 -3.9596676825 7 5.0011757995
-4.3006356353 2.6728636171 -2.1697351172 4 5.5088489961
-5.3531293373 1.4655259488 -0.6801612387 6 5.5916347626
-4.2567066465 3.5544797704 -1.5112883212 6 5.7478578882
-5.4707129484 1.7884533455 -1.7152027988 5 6.0057627470
-5.5537941990 0.9103575703 -2.3551250975 6 6.1008192184
-4.4243444914 3.0237053807 -3.1941144192 6 6.2385884085
-6.3856720210 2.3749466063 -1.7899044466 6 7.0442129774
10.0000000000 2.3749466063 -1.7899044466 6 10.4328389861
10.8318778220 0.9103575703 -2.3551250975 6 11.1222723525
11.0325426838 1.4655259488 -0.6801612387 6 11.1502189972
10.9149590726 1.7884533455 -1.7152027988 5 11.1927126992

POTENTIALS
0 30 Zn -1 5 1.0000000000
1 6 C -1 5 1 0.0000000000
2 6 C -1 5 1 0.0000000000
3 6 C -1 5 1 0.0000000000
4 6 C -1 5 1 0.0000000000
5 6 C -1 5 2 0.0000000000
6 1 H -1 5 10 0.0000000000
7 1 H -1 5 1 0.0000000000
8 7 N -1 5 1 0.0000000000
9 7 N -1 5 1 0.0000000000

FOLP 0 1.1500000000
FOLP 1 1.1500000000
FOLP 2 1.1500000000
FOLP 3 1.1500000000
FOLP 4 1.1500000000
FOLP 5 1.1500000000
FOLP 6 0.8000000000
FOLP 7 0.8000000000
FOLP 8 1.1500000000
FOLP 9 1.1500000000

PRINT 0 0 0 0 0 0

EXAFS 20

RPATH 9.0000000000

END