SCFRAMP 3.0000000000 1

CONTROL 0 1 1 1 1 1

EXCHANGE 0 0.0000000000 0.0000000000 0

DEBYE 10.0 315.0 5 corvus-Cx4Cx76Hx4H-HLHH-1pi1-cluster1.dym 16 0 3

RGRID 0.0100000000

EDGE K

SCF 9.0000000000 0 100 0.0500000000 0

EGRID
e_grid -200 -10.0000000000 20.0000000000
e_grid -10 10.0000000000 0.1000000000
k_grid last 20.0000000000 0.0250000000

CHSH 4

ABSOLUTE

ATOMS
0.0000000000 0.0000000000 0.0000000000 0 0.0000000000
-1.1098520617 -1.7049861935 -0.2485377809 9 2.0495171498
-1.4095690670 1.4406654162 -0.4431328505 9 2.0636783954
0.5872387220 0.1721387217 2.2106502809 10 2.2937863285
1.4853608685 -0.1070122368 -1.7507170937 10 2.2984253024
-1.5322907475 2.0117625962 -1.6223952481 3 3.0045415656
-0.6957989296 -2.8287445806 -0.7929193991 3 3.0190483975
-2.4301410246 -1.8883080114 0.0819117392 1 3.0786363992
-2.4196552538 1.9431914597 0.3428219829 1 3.1222190039
-0.4171465690 -2.0103981197 2.4024627699 6 3.1603068238
1.6963141263 -2.4253370435 1.1156136863 6 3.1629630549
0.5326240328 -1.5807470214 2.7274211703 4 3.1970729967
-0.8932738793 1.8354212934 -2.4733916447 6 3.2069262193
2.6639985046 1.2375489468 -1.3801391025 4 3.2454890804
0.2978217294 -3.0243031475 -1.1634249323 6 3.2540228769
-3.0140020068 -1.1090804787 0.5451391160 6 3.2575211835
2.1146689285 2.1789420109 -1.3038144748 6 3.3044735055
3.1209469365 1.0491162726 -0.4056515400 6 3.3174550345
-2.5436205688 1.6382039847 1.3697290294 6 3.3211256386
1.6864396315 -2.4151975344 2.2084303106 5 3.6816330884
0.5303760627 -1.5819450195 3.8202011502 6 4.1686671299
-1.6984082486 -3.7179852930 -0.8258138761 8 4.1701287481
-2.5754600063 2.8535291127 -1.6199705605 8 4.1713220036
2.6436799386 -2.0117595288 2.5475767936 6 4.1864504701
-2.8188225780 -3.1468606745 -0.2749672503 2 4.2336863157
-3.1638562296 2.8334308024 -0.3786370959 2 4.2639984057
1.6055730101 -3.4493623251 2.5590432166 6 4.5852663309
3.7314396368 1.3428024677 -2.4505696912 5 4.6617649063
3.2859970876 1.5494589800 -3.4269171838 6 4.9942328115
4.2979276898 0.4115103723 -2.5303984401 6 5.0044419748
-2.8688950167 3.4157737628 -2.4041628495 7 5.0673531575
-1.6349144651 -4.6537228810 -1.1967786832 7 5.0756636195
4.4336981444 2.1496832984 -2.2192957215 6 5.4040809596
-4.1338262177 -3.8301151974 -0.2234388490 4 5.6398782383
-4.3480657829 3.6584979069 -0.0233297102 4 5.6825018489
-4.7811288321 -3.2645167097 0.4498812179 6 5.8067766762
-4.5432442851 3.5091902647 1.0407221467 6 5.8342598103
-4.9361874085 -2.9484198015 -2.0327460227 6 6.0984573336
-4.0979574325 4.7173613613 -0.1497997313 6 6.2505354403
-4.0146368406 -4.8271502268 0.2119599976 6 6.2820072679
-5.8949819607 2.2908279468 -0.6929324144 6 6.3622999245
-4.7775603715 -3.9391975359 -1.6015696899 5 6.3958881949
-4.1454129334 -4.5090373573 -2.2864125790 6 6.5378550580
-5.5995603716 3.3328024675 -0.8345696897 5 6.5695627868
-5.4339144146 3.4956849613 -1.9021263737 6 6.7353785309
-5.7437038465 -4.4438607339 -1.5360790155 6 7.4227737969
-6.4287947763 3.9704193352 -0.5227293968 6 7.5740925526

POTENTIALS
0 30 Zn -1 5 1.0000000000
1 6 C -1 5 2 0.0000000000
2 6 C -1 5 2 0.0000000000
3 6 C -1 5 2 0.0000000000
4 6 C -1 5 4 0.0000000000
5 6 C -1 5 4 0.0000000000
6 1 H -1 5 24 0.0000000000
7 1 H -1 5 2 0.0000000000
8 7 N -1 5 2 0.0000000000
9 7 N -1 5 2 0.0000000000
10 16 S -1 5 2 0.0000000000

FOLP 0 1.1500000000
FOLP 1 1.1500000000
FOLP 2 1.1500000000
FOLP 3 1.1500000000
FOLP 4 1.1500000000
FOLP 5 1.1500000000
FOLP 6 0.8000000000
FOLP 7 0.8000000000
FOLP 8 1.1500000000
FOLP 9 1.1500000000
FOLP 10 1.1500000000

PRINT 0 0 0 0 0 0

EXAFS 20

RPATH 9.0000000000

END