SCFRAMP 3.0000000000 1

CONTROL 0 1 1 1 1 1

EXCHANGE 0 0.0000000000 0.0000000000 0

DEBYE 10.0 315.0 5 corvus-zn-1his-delta-charge-4.dym 16 0 3

RGRID 0.0100000000

EDGE K

SCF 9.0000000000 0 100 0.0500000000 0

EGRID
e_grid -200 -10.0000000000 20.0000000000
e_grid -10 10.0000000000 0.1000000000
k_grid last 20.0000000000 0.0250000000

CHSH 4

ABSOLUTE

ATOMS
0.0000000000 0.0000000000 0.0000000000 0 0.0000000000
0.1808542638 0.8298303074 1.7882588034 9 1.9796959746
0.1385196252 2.0862048183 2.0229359967 3 2.9092453107
0.3490141234 0.1659554323 3.0537193642 2 3.0780763505
-0.9778181752 -1.4878939384 2.5167405002 5 3.0828460067
1.7193156283 -1.3406952579 2.2508792399 5 3.1336827148
0.0149693963 2.8799224257 1.2966748623 5 3.1584082952
-0.4084318446 -1.0894957944 3.3550026072 4 3.5510364898
1.2831428953 -0.9943972548 3.1864837079 4 3.5761655458
0.4995542851 -1.9945881928 3.3624369928 6 3.9413093095
0.2737830376 2.3469515653 3.3886298068 8 4.1310955894
0.4003404627 1.2434511785 4.0379057042 1 4.2439516722
-0.7759984378 -1.2056496721 4.3705712244 5 4.5997453772
1.8533784792 -1.0588391328 4.1091345848 5 4.6304577670
0.2700597872 3.2823644398 3.7981205751 7 5.0271829594
0.5239505506 1.1672684845 5.1134583998 5 5.2711001415
0.5239505506 1.1672684845 -10.1634942328 5 10.2437129457
-0.7759984378 -1.2056496721 -10.9063814082 5 11.0002236399
0.4003404627 1.2434511785 -11.2390469284 1 11.3147080907
1.8533784792 -1.0588391328 -11.1678180478 5 11.3699741444
0.2700597872 3.2823644398 -11.4788320575 7 11.9419610621
-0.4084318446 -1.0894957944 -11.9219500254 4 11.9785938267

POTENTIALS
0 30 Zn -1 5 1.0000000000
1 6 C -1 5 2 0.0000000000
2 6 C -1 5 1 0.0000000000
3 6 C -1 5 1 0.0000000000
4 6 C -1 5 3 0.0000000000
5 1 H -1 5 9 0.0000000000
6 1 H -1 5 1 0.0000000000
7 1 H -1 5 2 0.0000000000
8 7 N -1 5 1 0.0000000000
9 7 N -1 5 1 0.0000000000

FOLP 0 1.1500000000
FOLP 1 1.1500000000
FOLP 2 1.1500000000
FOLP 3 1.1500000000
FOLP 4 1.1500000000
FOLP 5 0.8000000000
FOLP 6 0.8000000000
FOLP 7 0.8000000000
FOLP 8 1.1500000000
FOLP 9 1.1500000000

PRINT 0 0 0 0 0 0

EXAFS 20

RPATH 9.0000000000

END