SCFRAMP 3.0000000000 1

CONTROL 0 1 1 1 1 1

EXCHANGE 0 0.0000000000 0.0000000000 0

DEBYE 10.0 315.0 5 corvus-1clc-2delta-charge-1.dym 16 0 3

RGRID 0.0100000000

EDGE K

SCF 9.0000000000 0 100 0.0500000000 0

EGRID
e_grid -200 -10.0000000000 20.0000000000
e_grid -10 10.0000000000 0.1000000000
k_grid last 20.0000000000 0.0250000000

CHSH 4

ABSOLUTE

ATOMS
0.0000000000 0.0000000000 0.0000000000 0 0.0000000000
-1.4492196016 1.2624403237 -0.5297034180 9 1.9936345542
1.0727314984 0.8329100878 1.4595303317 9 1.9936702012
-0.7510301865 -2.2102809342 0.0023690289 10 2.3343936603
1.4187012201 -1.1032428286 -1.4974406004 10 2.3392704509
2.2105735088 -1.7406532408 0.6739757535 6 2.8932252347
-1.6806171986 -1.2799465068 -2.0018203186 6 2.9103301903
2.1356565378 1.5867295052 1.2398767879 3 2.9353081302
-2.6284315659 1.3067759269 0.0654699769 3 2.9360861939
-1.1545036479 0.1185298934 2.7954971686 6 3.0268353818
0.6712036965 2.3502324104 -1.7861721015 6 3.0272954203
-1.4115118492 2.2873853589 -1.4524505658 2 3.0551775933
0.8244601596 0.8515084192 2.8160977564 2 3.0553572158
2.5846467848 1.7826815326 0.2792591888 6 3.1521957654
-2.9703218386 0.6428927197 0.8433052432 6 3.1539319281
2.6442712421 -1.7601089394 -0.3278412741 4 3.1933734172
-1.9175069042 -2.1517311908 -1.3894280179 4 3.1995765442
-0.2928016406 0.5335395894 -3.2563559895 6 3.3127408025
0.4079667064 -1.8697489544 2.7104846859 6 3.3180001837
-0.2691869979 0.0599361343 3.4364933578 4 3.4475412366
-0.2512371768 2.5063673009 -2.3547982607 4 3.4481983723
-2.9066539877 -1.9829260269 -0.9563883659 6 3.6462736785
3.4815496694 -1.0577069584 -0.3306076850 6 3.6536602951
-0.2717671887 1.5804344634 -3.5668596420 5 3.9107695155
0.1161846675 -1.4001082566 3.6523307202 5 3.9132239518
2.5798359799 2.0872797033 2.3929255205 8 4.0912568716
-3.3476467408 2.3125472532 -0.4332212835 8 4.0917348619
-2.6035141613 2.9479085837 -1.3912856526 1 4.1718253526
1.7703557442 1.6401515948 3.4030777788 1 4.1719533894
-0.5364200193 0.5192441570 4.3906714825 6 4.4536902675
-0.2520103919 3.5484292462 -2.6815883629 6 4.4548597622
3.0973049919 -3.1553753840 -0.6974740572 5 4.4761771733
-1.8880539654 -3.4204576736 -2.2128817089 5 4.4901140220
2.2577133222 -3.8533916066 -0.6753911190 6 4.5168627921
-0.9015838113 -3.5715665634 -2.6563807434 6 4.5415085313
0.6161831535 1.7329761652 -4.1837854760 6 4.5702241714
-0.7229251283 -1.9633418173 4.0659546808 6 4.5726709152
-1.1550725142 1.7686071862 -4.1810804294 6 4.6843993691
0.9577256362 -1.4782414680 4.3442161394 6 4.6877126723
3.3775418555 2.6954420597 2.4957657945 7 4.9901947641
-4.2803263808 2.5619367267 -0.1427349273 7 4.9904996721
3.5324117106 -3.1759788482 -1.6989405239 6 5.0449155634
-2.1245545791 -4.2931243032 -1.6003048156 6 5.0503092921
-2.9767812065 3.7964357131 -1.9393714134 6 5.1995492068
1.9328648119 1.9117148758 4.4324510047 6 5.1997348064
3.8535144739 -3.5054181659 0.0106590454 6 5.2093803790
-2.6224733521 -3.3613799521 -3.0209015188 6 5.2251399647

POTENTIALS
0 30 Zn -1 5 1.0000000000
1 6 C -1 5 2 0.0000000000
2 6 C -1 5 2 0.0000000000
3 6 C -1 5 2 0.0000000000
4 6 C -1 5 4 0.0000000000
5 6 C -1 5 4 0.0000000000
6 1 H -1 5 24 0.0000000000
7 1 H -1 5 2 0.0000000000
8 7 N -1 5 2 0.0000000000
9 7 N -1 5 2 0.0000000000
10 16 S -1 5 2 0.0000000000

FOLP 0 1.1500000000
FOLP 1 1.1500000000
FOLP 2 1.1500000000
FOLP 3 1.1500000000
FOLP 4 1.1500000000
FOLP 5 1.1500000000
FOLP 6 0.8000000000
FOLP 7 0.8000000000
FOLP 8 1.1500000000
FOLP 9 1.1500000000
FOLP 10 1.1500000000

PRINT 0 0 0 0 0 0

EXAFS 20

RPATH 9.0000000000

END