SCFRAMP 3.0000000000 1

CONTROL 0 1 1 1 1 1

EXCHANGE 0 0.0000000000 0.0000000000 0

DEBYE 10.0 315.0 5 corvus-zn-1his-delta-charge-2.dym 16 0 3

RGRID 0.0100000000

EDGE K

SCF 9.0000000000 0 100 0.0500000000 0

EGRID
e_grid -200 -10.0000000000 20.0000000000
e_grid -10 10.0000000000 0.1000000000
k_grid last 20.0000000000 0.0250000000

CHSH 4

ABSOLUTE

ATOMS
0.0000000000 0.0000000000 0.0000000000 0 0.0000000000
0.0146583033 0.9368323535 1.6378312547 9 1.8868918738
0.1265744783 2.2552784708 1.7651196983 3 2.8666966405
-0.0634378792 0.3839312401 2.9067718575 2 2.9327035638
1.5249785451 -1.7081972125 1.9560796254 6 3.0116016969
-0.9333014917 -1.4923663692 2.4924557602 6 3.0513185299
0.2028161697 2.9678803639 0.9603456904 6 3.1259737840
-0.1721059520 -1.0745244648 3.1602898232 4 3.3424025866
1.1445779446 -1.8235624817 2.9749242646 5 3.6722762935
0.1243254650 2.5630599786 3.0532301964 8 3.9883515275
0.0054700140 1.4149811345 3.7907602979 1 4.0462408687
1.9045187411 -1.4515266772 3.6646081890 6 4.3776105936
-0.5387990300 -1.2106792141 4.1792800072 6 4.3843391672
1.0004129395 -2.8895529659 3.1591127343 6 4.3966277601
0.1928422144 3.4998133001 3.4235281685 7 4.8996353309
-0.0204979764 1.4221045872 4.8670402204 6 5.0705899194
-0.0204979764 1.4221045872 -11.5223260456 6 11.6097717086

POTENTIALS
0 30 Zn -1 5 1.0000000000
1 6 C -1 5 1 0.0000000000
2 6 C -1 5 1 0.0000000000
3 6 C -1 5 1 0.0000000000
4 6 C -1 5 1 0.0000000000
5 6 C -1 5 1 0.0000000000
6 1 H -1 5 8 0.0000000000
7 1 H -1 5 1 0.0000000000
8 7 N -1 5 1 0.0000000000
9 7 N -1 5 1 0.0000000000

FOLP 0 1.1500000000
FOLP 1 1.1500000000
FOLP 2 1.1500000000
FOLP 3 1.1500000000
FOLP 4 1.1500000000
FOLP 5 1.1500000000
FOLP 6 0.8000000000
FOLP 7 0.8000000000
FOLP 8 1.1500000000
FOLP 9 1.1500000000

PRINT 0 0 0 0 0 0

EXAFS 20

RPATH 9.0000000000

END