SCFRAMP 3.0000000000 1

CONTROL 0 1 1 1 1 1

EXCHANGE 0 0.0000000000 0.0000000000 0

DEBYE 10.0 315.0 5 corvus-zn-1cys-charge-4.dym 16 0 3

RGRID 0.0100000000

EDGE K

SCF 9.0000000000 0 100 0.0500000000 0

EGRID
e_grid -200 -10.0000000000 20.0000000000
e_grid -10 10.0000000000 0.1000000000
k_grid last 20.0000000000 0.0250000000

CHSH 4

ABSOLUTE

ATOMS
0.0000000000 0.0000000000 0.0000000000 0 0.0000000000
-1.8667607415 2.5931310249 2.2105115961 4 3.8852909408
0.2844812310 2.4848265736 3.1112253267 3 3.9918686984
-0.1721725709 1.8035656085 3.6279151898 3 4.0551523920
-0.8693082888 2.8307997376 3.4509919301 1 4.5473585032
-0.9239321918 3.7101536002 4.5983462888 2 5.9802741596
-0.0001888328 4.3154179867 4.6012525257 3 6.3082768837
-0.8542126531 3.0802285887 5.5036664384 3 6.3645763159
-1.8205804206 4.3253592506 4.5965731262 3 6.5689976571
-0.8542126531 3.0802285887 -10.0000000000 3 10.4984516675
-0.9239321918 3.7101536002 -10.9053201496 2 11.5561627714
-0.0001888328 4.3154179867 -10.9024139127 3 11.7254194620
-1.8205804206 4.3253592506 -10.9070933122 3 11.8738338474

POTENTIALS
0 30 Zn -1 5 1.0000000000
1 6 C -1 5 1 0.0000000000
2 6 C -1 5 2 0.0000000000
3 1 H -1 5 8 0.0000000000
4 16 S -1 5 1 0.0000000000

FOLP 0 1.1500000000
FOLP 1 1.1500000000
FOLP 2 1.1500000000
FOLP 3 0.8000000000
FOLP 4 1.1500000000

PRINT 0 0 0 0 0 0

EXAFS 20

RPATH 9.0000000000

END