SCFRAMP 3.0000000000 1

CONTROL 0 1 1 1 1 1

EXCHANGE 0 0.0000000000 0.0000000000 0

DEBYE 10.0 315.0 5 corvus-1clc-2delta-charge-0.dym 16 0 3

RGRID 0.0100000000

EDGE K

SCF 9.0000000000 0 100 0.0500000000 0

EGRID
e_grid -200 -10.0000000000 20.0000000000
e_grid -10 10.0000000000 0.1000000000
k_grid last 20.0000000000 0.0250000000

CHSH 4

ABSOLUTE

ATOMS
0.0000000000 0.0000000000 0.0000000000 0 0.0000000000
0.8722829491 0.8738030423 1.6632668131 9 2.0714405112
-0.6574458006 1.8035537336 -0.8191507555 9 2.0871149971
1.5982489776 -1.1378434468 -1.1785010099 10 2.2886572776
-1.9465377973 -1.0759857269 0.5917994831 10 2.3015171755
-1.4861590473 2.5447616040 -0.1080210096 3 2.9489233414
1.0962619685 -2.1117339163 1.8000988278 6 2.9835492667
1.5316995003 2.0142608609 1.5922275915 3 2.9897389314
-1.9213261939 2.2689592772 0.8392875805 6 3.0893485054
2.8439795582 0.9085458713 -0.8760374848 6 3.1114493411
-1.2793706776 -1.7211207888 -2.2680723341 6 3.1214096516
-2.8209141879 0.0428976437 -1.3528024753 6 3.1288131297
0.9922400206 0.4154985989 2.9582793277 2 3.1477922302
-2.8561058996 -0.9868196922 -0.9885743317 4 3.1793762319
1.6299439812 2.6354102659 0.7163935125 6 3.1804597649
-0.3380356891 2.5257600908 -1.9493742798 2 3.2083940291
3.1129163788 -0.1495409094 -0.9132111289 4 3.2475476025
1.3682135548 1.4563328590 -2.5835407957 6 3.2661287132
-0.6616241069 -0.8882255983 3.1161106609 6 3.3070888744
-0.6388214417 0.2155762742 -3.4264702749 6 3.4921718899
3.2738625831 -0.3939587844 1.2284647039 6 3.5188784102
0.3884509890 -0.8608672862 3.4238289525 4 3.5517025990
-2.3275778628 -1.9359653519 -2.0444147212 5 3.6531099221
0.5298564041 1.9945189732 -3.0322160404 4 3.6678587566
1.1043555323 -2.0973327900 2.8921909389 5 3.7394082956
3.8816723633 -0.5381412648 0.3332966411 5 3.9329458435
-0.2185107373 1.0596871014 -3.9761096383 5 4.1206955178
-1.7131265073 3.7077261219 -0.7247513273 8 4.1481682598
-3.9016427437 -1.2144361803 -0.7666858722 6 4.1575808546
3.7404357227 -0.2856594004 -1.7975442294 6 4.1597627270
2.0722974049 2.3096257887 2.7782421487 8 4.1650230798
-2.3902948531 -2.9722169337 -1.7035646720 6 4.1772856710
1.7437882494 1.3145197000 3.6596276881 1 4.2616469019
-0.9970322465 3.7211970776 -1.8918716956 1 4.2919179283
2.1458113131 -2.1157253079 3.2222511205 6 4.4117685856
0.6149192044 -3.0063476771 3.2485998109 6 4.4687417373
4.1784560506 -1.5891606942 0.2956608445 6 4.4802167374
-2.9005672036 -1.8448469504 -2.9732835088 6 4.5450154231
0.3994684381 -0.8645020747 4.5163519411 6 4.6156661195
0.9421306135 2.8367370492 -3.5931191849 6 4.6738841081
4.7876939655 0.0688846150 0.4335191898 6 4.8077746917
0.4532075696 0.6631308891 -4.7408429200 6 4.8084021535
-1.0372579162 1.5828538796 -4.4758563858 6 4.8594877071
-2.3068799476 4.4463123122 -0.3813913319 7 5.0236289292
2.6189230574 3.1311242602 2.9838457961 7 5.0562864682
2.0587697260 1.3315580852 4.6895082645 6 5.2917924640
-1.0177472877 4.5579733600 -2.5698338600 6 5.3305700220

POTENTIALS
0 30 Zn -1 5 1.0000000000
1 6 C -1 5 2 0.0000000000
2 6 C -1 5 2 0.0000000000
3 6 C -1 5 2 0.0000000000
4 6 C -1 5 4 0.0000000000
5 6 C -1 5 4 0.0000000000
6 1 H -1 5 24 0.0000000000
7 1 H -1 5 2 0.0000000000
8 7 N -1 5 2 0.0000000000
9 7 N -1 5 2 0.0000000000
10 16 S -1 5 2 0.0000000000

FOLP 0 1.1500000000
FOLP 1 1.1500000000
FOLP 2 1.1500000000
FOLP 3 1.1500000000
FOLP 4 1.1500000000
FOLP 5 1.1500000000
FOLP 6 0.8000000000
FOLP 7 0.8000000000
FOLP 8 1.1500000000
FOLP 9 1.1500000000
FOLP 10 1.1500000000

PRINT 0 0 0 0 0 0

EXAFS 20

RPATH 9.0000000000

END