SCFRAMP 3.0000000000 1

CONTROL 0 1 1 1 1 1

EXCHANGE 0 0.0000000000 0.0000000000 0

DEBYE 10.0 315.0 5 corvus-zn-1his-delta-charge-1.dym 16 0 3

RGRID 0.0100000000

EDGE K

SCF 9.0000000000 0 100 0.0500000000 0

EGRID
e_grid -200 -10.0000000000 20.0000000000
e_grid -10 10.0000000000 0.1000000000
k_grid last 20.0000000000 0.0250000000

CHSH 4

ABSOLUTE

ATOMS
0.0000000000 0.0000000000 0.0000000000 0 0.0000000000
0.0284040283 0.9655218375 1.7693115841 9 2.0158131583
0.1333873248 2.2784635851 1.8931760871 3 2.9653506005
1.4330949748 -1.6752272433 2.0141183777 6 2.9861045466
-0.0813848470 0.4343343068 3.0397970789 2 3.0717480471
0.2284334539 2.9862407678 1.0853311161 6 3.1855548021
-0.9838817701 -1.4402729700 2.6701805282 6 3.1894001974
-0.1917796751 -1.0246986284 3.3014873724 4 3.4621677592
1.1100635293 -1.7795447550 3.0532942125 5 3.7042713348
0.0982768798 2.6118529626 3.1817106674 8 4.1176105952
-0.0374779589 1.4696451258 3.9253605164 1 4.1916245749
1.9078634334 -1.3996924936 3.6952949086 6 4.3879706492
0.9796771552 -2.8437211438 3.2596321952 6 4.4352811997
-0.5091217874 -1.1598678676 4.3376549098 6 4.5188215921
0.1560580809 3.5518863074 3.5426057522 7 5.0189945189
-0.0915575005 1.4873822065 5.0008079470 6 5.2181192711
-0.0915575005 1.4873822065 -11.3947995042 6 11.4918294603

POTENTIALS
0 30 Zn -1 5 1.0000000000
1 6 C -1 5 1 0.0000000000
2 6 C -1 5 1 0.0000000000
3 6 C -1 5 1 0.0000000000
4 6 C -1 5 1 0.0000000000
5 6 C -1 5 1 0.0000000000
6 1 H -1 5 8 0.0000000000
7 1 H -1 5 1 0.0000000000
8 7 N -1 5 1 0.0000000000
9 7 N -1 5 1 0.0000000000

FOLP 0 1.1500000000
FOLP 1 1.1500000000
FOLP 2 1.1500000000
FOLP 3 1.1500000000
FOLP 4 1.1500000000
FOLP 5 1.1500000000
FOLP 6 0.8000000000
FOLP 7 0.8000000000
FOLP 8 1.1500000000
FOLP 9 1.1500000000

PRINT 0 0 0 0 0 0

EXAFS 20

RPATH 9.0000000000

END