SCFRAMP 3.0000000000 1

CONTROL 0 1 1 1 1 1

EXCHANGE 0 0.0000000000 0.0000000000 0

DEBYE 10.0 315.0 5 corvus-Cx2Cx59Hx48H-LLLL-1gup-cluster3.dym 16 0 3

RGRID 0.0100000000

EDGE K

SCF 9.0000000000 0 100 0.0500000000 0

EGRID
e_grid -200 -10.0000000000 20.0000000000
e_grid -10 10.0000000000 0.1000000000
k_grid last 20.0000000000 0.0250000000

CHSH 4

ABSOLUTE

ATOMS
0.0000000000 0.0000000000 0.0000000000 0 0.0000000000
-0.0872761145 0.3211479178 2.0230735728 9 2.0502633456
-1.3762496284 -1.4849448497 -0.3994615729 9 2.0636602905
-0.7570259194 1.8364870464 -1.1617054309 10 2.3011589303
2.1134124523 -0.6895583177 -0.5960335787 10 2.3015774795
0.3348432403 0.4842148606 -2.8283637906 6 2.8889835165
-2.5456313214 -1.1867104108 -0.9331297588 3 2.9596032792
0.9210704198 0.0223804885 2.8204564662 3 2.9671276148
-2.2170655820 1.6627539130 1.2017375806 6 3.0206462194
-2.8943323018 -0.1887898343 -1.1482386652 6 3.1194956495
-1.0572119436 0.9231202087 2.7973997855 2 3.1297433718
-0.4983111431 1.1909435049 -2.8522024998 4 3.1307697978
1.8424158912 -0.4466849252 2.5139867814 6 3.1486748443
2.1635548998 1.3727233866 -1.8345802152 6 3.1513527042
-1.3093858615 -2.8594628685 -0.3077597434 2 3.1600214066
0.7742527862 -3.0781348032 -0.0515983968 6 3.1744359559
2.3288780805 2.1068366581 0.5437393875 6 3.1871752916
2.8602488545 0.8825191838 -1.1515063825 4 3.2071530316
-0.2035681633 -2.6473455770 2.2326078367 6 3.4690656312
-1.3874455706 0.6299148332 -3.1520682769 6 3.5010473191
-2.3632051101 1.3763683695 2.2470832034 4 3.5395637025
-0.1437604203 -3.5769620381 0.2728410673 4 3.5902321274
-3.1539017230 -0.5973981958 1.8181207932 6 3.6891115328
3.2206717283 1.8257433942 -0.0223989461 5 3.7022381117
-0.1803282729 -3.6482566058 1.7956010521 5 4.0701938143
0.6436451902 0.4001784281 4.0712750780 8 4.1412199490
-3.2354795367 -2.3028923979 -1.1837706588 8 4.1440263273
3.7529340061 0.6204868848 -1.7247880924 6 4.1766507625
-3.4543282713 0.3147433938 2.3386010526 5 4.1833601438
3.9248226830 1.3581615385 0.6703277069 6 4.2069199057
-0.5993188937 0.9743224320 4.0833377307 1 4.2405346786
-2.4746662762 -3.3748106320 -0.7995485389 1 4.2605865614
-2.6799709445 2.2733010091 2.7851245675 6 4.4840897178
-0.2193282731 2.2977433914 -3.8453989445 5 4.4849551421
-0.1188549021 -4.5880435724 -0.1407827062 6 4.5917415084
3.6790466767 2.7405462792 -0.4124686843 6 4.6060947421
0.6913107617 2.8400579328 -3.5786191607 6 4.6206444062
0.7028426172 -4.1642720060 2.1785679782 6 4.7519793266
-4.3809736433 0.6742392079 1.8856606344 6 4.8169746315
-1.0671664409 -4.1866972936 2.1375275282 6 4.8204047937
-3.6597859355 0.0567880242 3.3800265144 6 4.9821518655
-1.0419688047 3.0171528358 -3.8729505817 6 5.0188301856
-4.1542114353 -2.3435999308 -1.5961935796 7 5.0296885817
1.2539769378 0.2883361944 4.8656503215 7 5.0329066128
-0.0915477131 1.8911157049 -4.8536730153 6 5.2098792052
-1.0421137028 1.3656792285 4.9839585040 6 5.2717096937
-2.8159860542 -4.3906360389 -0.9089296799 6 5.2946780305

POTENTIALS
0 30 Zn -1 5 1.0000000000
1 6 C -1 5 2 0.0000000000
2 6 C -1 5 2 0.0000000000
3 6 C -1 5 2 0.0000000000
4 6 C -1 5 4 0.0000000000
5 6 C -1 5 4 0.0000000000
6 1 H -1 5 24 0.0000000000
7 1 H -1 5 2 0.0000000000
8 7 N -1 5 2 0.0000000000
9 7 N -1 5 2 0.0000000000
10 16 S -1 5 2 0.0000000000

FOLP 0 1.1500000000
FOLP 1 1.1500000000
FOLP 2 1.1500000000
FOLP 3 1.1500000000
FOLP 4 1.1500000000
FOLP 5 1.1500000000
FOLP 6 0.8000000000
FOLP 7 0.8000000000
FOLP 8 1.1500000000
FOLP 9 1.1500000000
FOLP 10 1.1500000000

PRINT 0 0 0 0 0 0

EXAFS 20

RPATH 9.0000000000

END