SCFRAMP 3.0000000000 1

CONTROL 0 1 1 1 1 1

EXCHANGE 0 0.0000000000 0.0000000000 0

DEBYE 10.0 315.0 5 corvus-1clc-2delta-charge--1.dym 16 0 3

RGRID 0.0100000000

EDGE K

SCF 9.0000000000 0 100 0.0500000000 0

EGRID
e_grid -200 -10.0000000000 20.0000000000
e_grid -10 10.0000000000 0.1000000000
k_grid last 20.0000000000 0.0250000000

CHSH 4

ABSOLUTE

ATOMS
0.0000000000 0.0000000000 0.0000000000 0 0.0000000000
-0.4916048374 1.7732386547 -0.7660195397 10 1.9931975762
0.8540543049 0.6760727752 1.7856431449 10 2.0916511645
1.6544780224 -1.2223364784 -1.0721891908 11 2.3196968883
-1.9060899564 -1.2113086289 0.5603156989 11 2.3268865892
-1.1726900255 2.6984033732 0.0329234313 3 2.9423913086
1.4894246257 1.8318468361 1.7847541912 3 2.9596276911
2.8034373804 0.8865157332 -0.8483208526 6 3.0601992680
-1.9018197580 2.3059218038 0.7461353545 6 3.0807323357
-2.6948631467 -0.2383130601 -1.4973868792 6 3.0921267698
1.5347110241 2.5177231550 0.9552140698 6 3.0994679756
-0.2559473389 2.3832482943 -1.9725441993 2 3.1042409847
1.2061611295 -2.3230603161 1.7373662686 6 3.1416357926
1.0120552011 0.1263176182 3.0389005039 2 3.2054840732
-2.7791703228 -1.2290432984 -1.0431576390 4 3.2128667841
1.3435644391 1.1845950863 -2.6785540815 6 3.2222791450
3.1265104993 -0.1572244475 -0.8750781935 4 3.2504690853
-1.2018858011 -2.1336625361 -2.2092984325 6 3.2981881178
-0.7688445941 -0.0469392873 -3.2131377098 6 3.3041760318
-0.6035674907 -1.2324079005 3.0960803171 6 3.3865670345
0.4806778808 1.7193292408 -3.0849321927 4 3.5642602173
3.3553897844 -0.3459340623 1.2659658618 6 3.6029127861
0.4408504099 -1.1926961983 3.4209074832 4 3.6495864579
-2.2629712631 -2.2875751895 -1.9968678166 5 3.7870199712
1.1989675960 -2.3752372502 2.8282508479 5 3.8830758619
-0.3812495920 0.7349700511 -3.8689228461 5 3.9565257761
3.9464505255 -0.4810889776 0.3580528224 5 3.9917565279
3.7401850472 -0.2754578099 -1.7720443114 6 4.1478912997
2.0581182566 2.0476221331 2.9771085846 9 4.1583389331
-1.6088720578 3.7541750124 -0.8291350575 8 4.1677049159
-3.8388940326 -1.3977171183 -0.8354182567 6 4.1699693284
-0.8577899038 3.6008662777 -2.0100064078 1 4.2121452050
1.7651334288 0.9833182378 3.7904182605 1 4.2953325095
-2.3754425880 -3.2858510712 -1.5667807032 6 4.3467627636
2.2364041835 -2.3828013176 3.1719289259 6 4.5541606144
4.2917202972 -1.5177686339 0.3342911290 6 4.5644534497
0.8603318427 2.4897429317 -3.7623045101 6 4.5928124251
0.7330852733 -3.3180338235 3.1241773296 6 4.6159773027
-2.8084843453 -2.2597323321 -2.9463937053 6 4.6556643347
-1.2320285732 1.2439614966 -4.3291625024 6 4.6697947046
0.1966435288 0.2513201133 -4.6610404928 6 4.6719513003
0.4378885664 -1.2621749805 4.5115763219 6 4.7052261355
4.8256089363 0.1692611707 0.4227406578 6 4.8470465867
-1.6563507582 4.6802174523 -0.4286431341 7 4.9831383858
2.5910801010 2.8631834795 3.2338988670 7 5.0368261444
-0.9046768977 4.3190962226 -2.8145830236 6 5.2340147178
2.1042463395 0.9293874037 4.8114505351 6 5.3330732093

POTENTIALS
0 30 Zn -1 5 1.0000000000
1 6 C -1 5 2 0.0000000000
2 6 C -1 5 2 0.0000000000
3 6 C -1 5 2 0.0000000000
4 6 C -1 5 4 0.0000000000
5 6 C -1 5 4 0.0000000000
6 1 H -1 5 24 0.0000000000
7 1 H -1 5 2 0.0000000000
8 7 N -1 5 1 0.0000000000
9 7 N -1 5 1 0.0000000000
10 7 N -1 5 2 0.0000000000
11 16 S -1 5 2 0.0000000000

FOLP 0 1.1500000000
FOLP 1 1.1500000000
FOLP 2 1.1500000000
FOLP 3 1.1500000000
FOLP 4 1.1500000000
FOLP 5 1.1500000000
FOLP 6 0.8000000000
FOLP 7 0.8000000000
FOLP 8 1.1500000000
FOLP 9 1.1500000000
FOLP 10 1.1500000000
FOLP 11 1.1500000000

PRINT 0 0 0 0 0 0

EXAFS 20

RPATH 9.0000000000

END