SCFRAMP 3.0000000000 1

CONTROL 0 1 1 1 1 1

EXCHANGE 0 0.0000000000 0.0000000000 0

DEBYE 10.0 315.0 5 corvus-zn-1cys-charge-1.dym 16 0 3

RGRID 0.0100000000

EDGE K

SCF 9.0000000000 0 100 0.0500000000 0

EGRID
e_grid -200 -10.0000000000 20.0000000000
e_grid -10 10.0000000000 0.1000000000
k_grid last 20.0000000000 0.0250000000

CHSH 4

ABSOLUTE

ATOMS
0.0000000000 0.0000000000 0.0000000000 0 0.0000000000
-0.6619473932 1.7309752158 1.1210275173 4 2.1659067948
0.0115737200 1.4005285421 2.7950093051 1 3.1262903198
1.0950111272 1.3100805953 2.7291338951 3 3.2192440653
-0.3976420959 0.4599926570 3.1615336594 3 3.2194731806
-0.3843849114 2.5528357185 3.6945152432 2 4.5071237889
-1.4704753074 2.6491205393 3.7582645832 3 4.8274931319
0.0241402134 3.4976799622 3.3294686228 3 4.8290484754
0.0023903436 2.3804244616 4.7021230753 3 5.2703308953
0.0023903436 2.3804244616 -10.0000000000 3 10.2794176066
-0.3843849114 2.5528357185 -11.0076078321 2 11.3062881686
-1.4704753074 2.6491205393 -10.9438584921 3 11.3555350361
-0.3976420959 0.4599926570 -11.5405894159 3 11.5565962354
0.0241402134 -11.2044431131 3.3294686228 3 11.6886906682
0.0241402134 3.4976799622 -11.3726544525 3 11.8983871665
0.0115737200 1.4005285421 -11.9071137702 1 11.9892023290

POTENTIALS
0 30 Zn -1 5 1.0000000000
1 6 C -1 5 2 0.0000000000
2 6 C -1 5 2 0.0000000000
3 1 H -1 5 10 0.0000000000
4 16 S -1 5 1 0.0000000000

FOLP 0 1.1500000000
FOLP 1 1.1500000000
FOLP 2 1.1500000000
FOLP 3 0.8000000000
FOLP 4 1.1500000000

PRINT 0 0 0 0 0 0

EXAFS 20

RPATH 9.0000000000

END