SCFRAMP 3.0000000000 1

CONTROL 0 1 1 1 1 1

EXCHANGE 0 0.0000000000 0.0000000000 0

DEBYE 10.0 315.0 5 corvus-1clc-2eps-charge--1.dym 16 0 3

RGRID 0.0100000000

EDGE K

SCF 9.0000000000 0 100 0.0500000000 0

EGRID
e_grid -200 -10.0000000000 20.0000000000
e_grid -10 10.0000000000 0.1000000000
k_grid last 20.0000000000 0.0250000000

CHSH 4

ABSOLUTE

ATOMS
0.0000000000 0.0000000000 0.0000000000 0 0.0000000000
0.3884010117 1.0542595314 1.6259228755 10 1.9763460482
-0.9847292631 1.3914702381 -1.1934748623 10 2.0809284928
-1.5677644413 -1.6805979275 0.3533954396 11 2.3253350455
1.8171004177 -0.6513029831 -1.3038787814 11 2.3294096635
1.7607915280 -1.5867886978 1.7079799730 7 2.9215545117
0.6134318273 2.4367978497 1.6016862802 4 2.9798794115
0.5623997740 0.6365354122 2.9196045462 2 3.0406514998
-0.6607853205 1.7214328900 -2.4227277614 4 3.0445982068
-0.6479915103 -1.6533424834 -2.5218600147 7 3.0843495746
-2.1150254533 2.1064093103 -0.8777856962 3 3.1113984925
0.0190368268 3.0240438040 0.8984356772 7 3.1547408761
2.4845518573 1.6557235261 -1.0715671965 7 3.1721719031
-0.4025593637 -1.2516705105 2.9327275259 7 3.2139732185
-2.4019312072 -1.7586802095 -1.2688989223 5 3.2360985891
-2.7642950153 -0.7593713242 -1.5221902510 7 3.2457718496
0.1811657404 1.3310244400 -2.9725159852 7 3.2619470210
-2.5895452697 2.0132083165 0.0854935341 7 3.2811677150
3.0248313300 0.7062531111 -1.1108842764 5 3.2988576670
0.5232560511 -0.8013292199 3.3101736847 5 3.4457474134
3.3143828818 0.5844679376 1.0261900887 7 3.5184943876
-1.5257489248 -2.2899915887 -2.3847901935 6 3.6413178281
1.7108534833 -1.6100779742 2.7991127886 6 3.6543676782
3.9102515622 0.5651900692 0.1110214624 6 3.9524464397
-1.1736375491 -3.2993523084 -2.1569686667 7 4.1128657382
0.6058454044 2.8744455694 2.9672233063 9 4.1753922133
0.7523190454 1.7053000783 3.7365850645 1 4.1756556668
-1.5357734346 2.6183332293 -2.9053309688 9 4.2018111548
-3.2802631216 -2.3971613392 -1.1435640719 7 4.2206927654
3.6375241065 0.7244349632 -2.0160029912 7 4.2214518477
-2.4773741274 2.8837792935 -1.9413681123 2 4.2687791848
2.6498644673 -1.2050937814 3.1856054077 7 4.3153348109
1.6349247873 -2.6545347385 3.1121808121 7 4.4051337261
4.4594464447 -0.3794740154 0.0867815150 7 4.4764041543
0.4800735968 -0.8606977369 4.4012305760 7 4.5102219276
-2.0770346386 -2.3247553789 -3.3306784288 7 4.5620148243
4.6376922016 1.3825871553 0.1610113795 7 4.8420719598
1.1963971274 3.6593991728 3.2011287914 8 5.0069745288
-1.5041826558 3.0279021984 -3.8260781984 8 5.1058428849
0.8723880930 1.7375463366 4.8087164062 7 5.1868951919
-3.5953204068 3.8401344651 -2.1473515861 5 5.6819081629
-4.9422182923 3.0080657058 -0.6677775707 7 5.8240799980
-3.9282207545 4.3219674271 -0.0612404113 7 5.8407252225
-4.4909727014 3.9682458836 -0.9281725745 6 6.0644303545
-4.1860338157 3.5195226056 -3.0126669145 7 6.2438834403
-3.1820809605 4.8198361099 -2.4116806323 7 6.2588068222
-5.2960726926 4.6785203092 -1.1215180695 7 7.1550500368

POTENTIALS
0 30 Zn -1 5 1.0000000000
1 6 C -1 5 1 0.0000000000
2 6 C -1 5 2 0.0000000000
3 6 C -1 5 1 0.0000000000
4 6 C -1 5 2 0.0000000000
5 6 C -1 5 4 0.0000000000
6 6 C -1 5 4 0.0000000000
7 1 H -1 5 24 0.0000000000
8 1 H -1 5 2 0.0000000000
9 7 N -1 5 2 0.0000000000
10 7 N -1 5 2 0.0000000000
11 16 S -1 5 2 0.0000000000

FOLP 0 1.1500000000
FOLP 1 1.1500000000
FOLP 2 1.1500000000
FOLP 3 1.1500000000
FOLP 4 1.1500000000
FOLP 5 1.1500000000
FOLP 6 1.1500000000
FOLP 7 0.8000000000
FOLP 8 0.8000000000
FOLP 9 1.1500000000
FOLP 10 1.1500000000
FOLP 11 1.1500000000

PRINT 0 0 0 0 0 0

EXAFS 20

RPATH 9.0000000000

END