SCFRAMP 3.0000000000 1

CONTROL 0 1 1 1 1 1

EXCHANGE 0 0.0000000000 0.0000000000 0

DEBYE 10.0 315.0 5 corvus-Cx2Cx13Cx2C-LLHH-1dsz-cluster1.dym 16 0 3

RGRID 0.0100000000

EDGE K

SCF 9.0000000000 0 100 0.0500000000 0

EGRID
e_grid -200 -10.0000000000 20.0000000000
e_grid -10 10.0000000000 0.1000000000
k_grid last 20.0000000000 0.0250000000

CHSH 4

ABSOLUTE

ATOMS
0.0000000000 0.0000000000 0.0000000000 0 0.0000000000
-0.3390067084 0.9746732075 -2.1224284711 4 2.3600033951
-2.1445333960 -0.5673003418 0.8115300855 4 2.3620826073
0.9007140518 1.5212673845 1.5697110229 4 2.3642193117
1.3362879647 -1.9507760729 0.0069844902 4 2.3645806381
-2.1351194427 -1.7129550227 -1.3087056145 3 3.0340831119
-1.4230413128 2.1464917995 1.6156611102 3 3.0402030272
1.7344976408 2.1418213693 -1.7423037566 3 3.2605985991
2.7937341638 -0.8052151712 -1.5392710382 3 3.2897837891
-2.7383351661 -1.7996391874 -0.4015023140 1 3.3012701790
-0.5031023972 2.6301078095 1.9529057285 1 3.3142751690
1.2925915155 1.6368164500 -2.6055991999 1 3.3375302407
2.5369397683 -1.8520178831 -1.3668563832 1 3.4255408331
1.9530132119 0.8059862851 -2.8650166010 3 3.5598026099
1.1430954247 -1.9792868149 -3.0121761713 3 3.7811967329
-1.6672974353 -3.5145159355 0.3601012585 3 3.9065811031
-0.3484741036 3.9436702176 0.2441640009 3 3.9665583376
-0.5680404115 2.7176410617 3.0407562343 3 4.1175771183
-3.7639109586 -1.5368419398 -0.6741232114 3 4.1210861380
2.0412730840 -2.4875247680 -2.6518087238 2 4.1697319797
-2.6927269149 -3.2225247730 0.1201912741 2 4.2011772271
-0.3797269131 4.0094752293 1.3351912737 2 4.2429730002
3.4500563080 -2.3530971242 -1.0347947525 3 4.3024126701
1.7910443293 -3.5395575377 -2.4934770436 3 4.6854813113
1.1942730887 2.5964752352 -3.7758087320 2 4.7354728843
-3.2918126564 -3.3237864482 1.0288626867 3 4.7897959608
0.5356803941 4.5063373724 1.6667166674 3 4.8344569962
0.5581229210 3.4504516787 -3.5289228499 3 4.9669320976
-3.0825942222 -3.9250594063 -0.6247042996 3 5.0297846817
2.8042264613 -2.4314504894 -3.4359797211 3 5.0578250437
-1.2306337890 4.6401566403 1.6147895066 3 5.0648848279
0.7651708255 2.1022324729 -4.6513903150 3 5.1614241857
2.1834831647 2.9763143694 -4.0512881109 3 5.4807829106

POTENTIALS
0 30 Zn -1 5 1.0000000000
1 6 C -1 5 4 0.0000000000
2 6 C -1 5 4 0.0000000000
3 1 H -1 5 20 0.0000000000
4 16 S -1 5 4 0.0000000000

FOLP 0 1.1500000000
FOLP 1 1.1500000000
FOLP 2 1.1500000000
FOLP 3 0.8000000000
FOLP 4 1.1500000000

PRINT 0 0 0 0 0 0

EXAFS 20

RPATH 9.0000000000

END