SCFRAMP 3.0000000000 1

CONTROL 0 1 1 1 1 1

EXCHANGE 0 0.0000000000 0.0000000000 0

DEBYE 10.0 315.0 5 corvus-Cx15CHx15H-LLLL-1ia6-cluster1.dym 16 0 3

RGRID 0.0100000000

EDGE K

SCF 9.0000000000 0 100 0.0500000000 0

EGRID
e_grid -200 -10.0000000000 20.0000000000
e_grid -10 10.0000000000 0.1000000000
k_grid last 20.0000000000 0.0250000000

CHSH 4

ABSOLUTE

ATOMS
0.0000000000 0.0000000000 0.0000000000 0 0.0000000000
0.4621123414 -0.8498498114 -1.7965973033 10 2.0404789605
-0.8359718425 1.8150230074 -0.4488452367 10 2.0480770214
2.0237843173 0.4957832696 0.9956391573 11 2.3092858950
-1.6391263488 -1.2953896280 0.9908517349 11 2.3122622335
1.2553082820 -2.4372868422 0.1186648081 7 2.7441296199
-0.4221677920 0.7408848167 2.7639278398 7 2.8924787052
1.2108915625 -1.9973823445 -1.9348603472 2 3.0330643200
0.0155949076 -0.5221504206 -2.9929171984 4 3.0381635274
-2.1079084861 2.1056589715 -0.6186835856 4 3.0429997155
-0.1518843128 3.0072917504 -0.4686691018 3 3.0473797341
-1.1185846208 -2.7620274477 -0.8581235698 7 3.1010326081
0.9175993303 3.0366708453 -0.3410883957 7 3.1905641581
1.5289696481 1.5815536601 2.3733759838 5 3.2360429115
-0.6096450052 0.3248064227 -3.2266812899 7 3.2997936892
-2.9208627072 1.3977045631 -0.6413720467 7 3.3009657832
1.8729887100 -2.6302961362 -0.7630932322 5 3.3179595768
-1.7244701030 -2.8574934961 0.0441861121 5 3.3378164462
1.1398987064 2.5197489326 1.9700030048 7 3.3954993128
0.5083979252 0.9524669821 3.2957983545 6 3.4681333013
2.8242440884 -2.1225174992 -0.5694010632 7 3.5784986763
0.8777643022 0.0087462506 3.7043335592 7 3.8069191987
-2.7592100035 -2.9901421579 -0.2807589400 7 4.0783594190
-0.2429886359 -3.9560164329 1.1764409672 7 4.1343830064
0.4443855919 -1.4087830594 -3.8963332604 9 4.1669606596
-2.2611944322 3.4316939066 -0.7465917765 9 4.1769513535
1.1999778114 -2.3540776218 -3.2532914105 1 4.1911255289
-1.0311234390 4.0352207702 -0.6507260816 2 4.2154082416
2.4399491666 1.8241909310 2.9263065334 7 4.2242507520
-1.2816020748 -4.0605330200 0.8547983545 6 4.3429382348
0.2764711885 1.6208037365 4.1320638996 7 4.4471781098
2.1023979249 -4.1195330171 -0.9142016457 6 4.7144876670
1.1580667341 -4.6485641930 -1.0612593183 7 4.9067849920
-1.8987756735 -4.1756465109 1.7492263321 7 4.9092937989
0.2386298917 -1.3859340967 -4.8828582250 8 5.0813445063
-3.1414629420 3.9061501264 -0.8788082367 8 5.0891160473
-1.3654447503 -4.9780435809 0.2629587546 7 5.1686076042
1.6509188757 -3.1783543697 -3.7789857856 7 5.2065538700
2.5826518255 -4.5236874284 -0.0212666151 7 5.2090585206
2.7478755942 -4.3411650071 -1.7678587363 7 5.4334021029
-0.8381400251 5.5063295536 -0.7249309202 5 5.6167311395
1.3160660920 5.4858256048 -0.9755230203 7 5.7252037246
0.7852372458 5.6272334900 0.7041315832 7 5.7252210062
0.5633979258 5.9314669828 -0.3212016460 6 5.9668155903
-1.0545474038 5.8501246138 -1.7426349400 7 6.1945786586
-1.5772112331 5.9915911160 -0.0789123782 7 6.1962074319
0.6634036322 7.0159304023 -0.3845347945 7 7.0577086082

POTENTIALS
0 30 Zn -1 5 1.0000000000
1 6 C -1 5 1 0.0000000000
2 6 C -1 5 2 0.0000000000
3 6 C -1 5 1 0.0000000000
4 6 C -1 5 2 0.0000000000
5 6 C -1 5 4 0.0000000000
6 6 C -1 5 4 0.0000000000
7 1 H -1 5 24 0.0000000000
8 1 H -1 5 2 0.0000000000
9 7 N -1 5 2 0.0000000000
10 7 N -1 5 2 0.0000000000
11 16 S -1 5 2 0.0000000000

FOLP 0 1.1500000000
FOLP 1 1.1500000000
FOLP 2 1.1500000000
FOLP 3 1.1500000000
FOLP 4 1.1500000000
FOLP 5 1.1500000000
FOLP 6 1.1500000000
FOLP 7 0.8000000000
FOLP 8 0.8000000000
FOLP 9 1.1500000000
FOLP 10 1.1500000000
FOLP 11 1.1500000000

PRINT 0 0 0 0 0 0

EXAFS 20

RPATH 9.0000000000

END