SCFRAMP 3.0000000000 1

CONTROL 0 1 1 1 1 1

EXCHANGE 0 0.0000000000 0.0000000000 0

DEBYE 10.0 315.0 5 corvus-1clc-2eps-charge-0.dym 16 0 3

RGRID 0.0100000000

EDGE K

SCF 9.0000000000 0 100 0.0500000000 0

EGRID
e_grid -200 -10.0000000000 20.0000000000
e_grid -10 10.0000000000 0.1000000000
k_grid last 20.0000000000 0.0250000000

CHSH 4

ABSOLUTE

ATOMS
0.0000000000 0.0000000000 0.0000000000 0 0.0000000000
0.3932522139 1.1481853906 1.6590903286 10 2.0556161396
-0.8281139646 1.4593023652 -1.1952414230 10 2.0600820834
-1.6407746930 -1.5410711464 0.4355531542 11 2.2927600008
1.9755294300 -0.6095105435 -1.0043635113 11 2.2984702944
-0.6481175838 -1.5627308001 -2.4263698180 7 2.9579476753
0.5043074581 2.4619274472 1.6169255415 4 2.9882872978
1.8973509953 -1.4158742671 1.8347449105 7 2.9951510189
-0.3125137118 1.8930484514 -2.3242061907 4 3.0138400216
-2.0076140926 2.1411513787 -1.0100003843 3 3.1040528906
0.6077672539 0.7628350902 2.9653679292 2 3.1216510640
-2.4290261133 -1.6619749387 -1.2080100563 5 3.1814488605
0.3882760495 3.0791547398 0.7407422643 7 3.1907132908
3.0818603548 0.7298263506 -0.4414030787 5 3.1977095595
0.6142709316 1.5541003760 -2.7599958778 7 3.2264739270
2.6515245819 1.6911613935 -0.7334081507 7 3.2293183464
-0.3120787620 -1.1382075954 3.0062736096 7 3.2296425034
-2.7958449227 -0.6732870364 -1.4936153932 7 3.2405171205
3.1222654395 0.7141859107 0.6503934288 7 3.2682739484
-2.6311330589 1.9634158219 -0.1491397241 7 3.2863513995
0.5931258471 -0.6601323534 3.3946765553 5 3.5087607371
-1.5175387245 -2.2106336419 -2.2863238510 6 3.5237908041
1.8195838730 -1.4356055400 2.9251604140 6 3.7320788021
-1.1532794898 -3.2061069233 -2.0210121435 7 3.9615230997
0.7799503138 2.9395130791 2.8342523152 9 4.1571680048
-3.3025017927 -2.3075118916 -1.0877719358 7 4.1730536787
-1.1125840975 2.8230092505 -2.8656651538 9 4.1736388651
0.8494042197 1.8847832838 3.7049787682 1 4.2427306334
-2.2028465125 3.0042764031 -2.0504446289 2 4.2523561281
2.7333267879 -1.0019970648 3.3387424467 7 4.4297036665
1.7605230467 -2.4785495984 3.2441988539 7 4.4460629453
-2.0466478424 -2.2822372761 -3.2423724982 7 4.4621019477
0.5252715952 -0.6901289738 4.4846611630 7 4.5677537145
4.4745992503 0.5831600563 -1.0189136662 6 4.6260457370
4.4515957664 0.6159861313 -2.1111081026 7 4.9651708130
4.9218848306 -0.3687390802 -0.7214720934 7 4.9881299879
0.9045813057 3.9122950577 3.0667734296 8 5.0526645669
-0.9395898641 3.3086363424 -3.7324520242 8 5.0755395449
1.0576663220 2.0174140012 4.7533892175 7 5.2709891248
5.1261848049 1.3893940722 -0.6678368171 7 5.3529611017
-3.2901279376 3.9679427515 -2.3602566801 5 5.6692436110
-4.8436218642 3.0107592050 -1.1915031570 7 5.8262357940
-3.9678256293 4.2782375888 -0.3259198389 7 5.8440722816
-4.3747935631 3.9916352533 -1.2983147269 6 6.0628039590
-3.7243469671 3.7136651560 -3.3334012674 7 6.2268477765
-2.8571977330 4.9676495523 -2.4755447296 7 6.2425509744
-5.1508573536 4.7100789354 -1.5654953683 7 7.1531077723

POTENTIALS
0 30 Zn -1 5 1.0000000000
1 6 C -1 5 1 0.0000000000
2 6 C -1 5 2 0.0000000000
3 6 C -1 5 1 0.0000000000
4 6 C -1 5 2 0.0000000000
5 6 C -1 5 4 0.0000000000
6 6 C -1 5 4 0.0000000000
7 1 H -1 5 24 0.0000000000
8 1 H -1 5 2 0.0000000000
9 7 N -1 5 2 0.0000000000
10 7 N -1 5 2 0.0000000000
11 16 S -1 5 2 0.0000000000

FOLP 0 1.1500000000
FOLP 1 1.1500000000
FOLP 2 1.1500000000
FOLP 3 1.1500000000
FOLP 4 1.1500000000
FOLP 5 1.1500000000
FOLP 6 1.1500000000
FOLP 7 0.8000000000
FOLP 8 0.8000000000
FOLP 9 1.1500000000
FOLP 10 1.1500000000
FOLP 11 1.1500000000

PRINT 0 0 0 0 0 0

EXAFS 20

RPATH 9.0000000000

END