SCFRAMP 3.0000000000 1

CONTROL 0 1 1 1 1 1

EXCHANGE 0 0.0000000000 0.0000000000 0

DEBYE 10.0 315.0 5 corvus-1bto-4cys-charge--2.dym 16 0 3

RGRID 0.0100000000

EDGE K

SCF 9.0000000000 0 100 0.0500000000 0

EGRID
e_grid -200 -10.0000000000 20.0000000000
e_grid -10 10.0000000000 0.1000000000
k_grid last 20.0000000000 0.0250000000

CHSH 4

ABSOLUTE

ATOMS
0.0000000000 0.0000000000 0.0000000000 0 0.0000000000
-1.7238248919 -1.4656321776 0.6458561589 4 2.3530363610
2.0622785016 -1.1001877413 0.3527220372 4 2.3638567046
-0.2233102251 1.9108242938 1.3789761049 4 2.3670006414
0.0214687869 0.4782015636 -2.3191734120 4 2.3680589011
-0.4076524658 -2.9221952121 -0.7488263729 3 3.0440345477
2.4561140029 1.8413920909 -0.1836578548 3 3.0752156079
-2.3381778944 0.7139053723 -1.8989072834 3 3.0955751675
-2.1264118043 0.7748047382 2.3179729555 3 3.2395907405
-1.4614232266 -2.8957473043 -0.4599266412 1 3.2760712466
3.2137332425 -0.1191186437 -0.6679596298 1 3.2845761785
2.8426658323 -0.1060904965 -1.6958374118 3 3.3117772803
-1.6520788059 1.1314873080 -2.6406275309 1 3.3139918023
-1.9214451892 1.8112544908 2.0395941053 1 3.3365459025
-2.9892918540 1.7078208867 0.1670323543 3 3.4467981920
3.4062269411 1.3006808143 -0.1745935202 2 3.6502925160
-2.1358738094 -1.9780662581 -2.2937137408 3 3.7061874988
-1.4127448923 3.0379763135 -1.6521736015 3 3.7356158557
-2.9845636767 2.3065045750 1.0808074795 2 3.9237390972
-2.3411548200 -2.8681860277 -1.6941367804 2 4.0715594569
3.7869192304 1.3104132617 0.8499283162 3 4.0963786833
-1.7207799851 2.6456105180 -2.6239290485 2 4.1043077884
-1.6578865841 -3.8027778749 0.1179461371 3 4.1501347909
-1.9753660046 0.7557456467 -3.6152112610 3 4.1884334537
4.1716847642 -0.6462899268 -0.6775071558 3 4.2754719491
-1.9452005166 2.4018746839 2.9594951184 3 4.2791843151
-2.8034082980 3.3468301240 0.7990353541 3 4.4383361140
4.1146444940 1.8442925882 -0.8091720824 3 4.5810996411
-3.3988499273 -2.8519321460 -1.4188570003 3 4.6582027630
-1.0601779715 3.0730214999 -3.3826125170 3 4.6914289838
-3.9799347997 2.2429830420 1.5341579114 3 4.8191798507
-2.1651967148 -3.7501486678 -2.3198371483 3 4.9125692096
-2.7400735019 2.9943600203 -2.8241182614 3 4.9446778137

POTENTIALS
0 30 Zn -1 5 1.0000000000
1 6 C -1 5 4 0.0000000000
2 6 C -1 5 4 0.0000000000
3 1 H -1 5 20 0.0000000000
4 16 S -1 5 4 0.0000000000

FOLP 0 1.1500000000
FOLP 1 1.1500000000
FOLP 2 1.1500000000
FOLP 3 0.8000000000
FOLP 4 1.1500000000

PRINT 0 0 0 0 0 0

EXAFS 20

RPATH 9.0000000000

END