SCFRAMP 3.0000000000 1

CONTROL 0 1 1 1 1 1

EXCHANGE 0 0.0000000000 0.0000000000 0

DEBYE 10.0 315.0 5 corvus-zn-1cys-charge-3.dym 16 0 3

RGRID 0.0100000000

EDGE K

SCF 9.0000000000 0 100 0.0500000000 0

EGRID
e_grid -200 -10.0000000000 20.0000000000
e_grid -10 10.0000000000 0.1000000000
k_grid last 20.0000000000 0.0250000000

CHSH 4

ABSOLUTE

ATOMS
0.0000000000 0.0000000000 0.0000000000 0 0.0000000000
-1.1186006593 1.7326010434 1.1789872197 4 2.3755388178
0.3910228419 0.9575319132 2.8752084412 3 3.0555833826
0.9093020780 1.6173892955 2.4578327528 3 3.0795649438
-0.2915318733 1.9530141380 2.5433373169 1 3.2199098999
-0.5285465949 2.8614038349 3.6491113660 2 4.6672269251
-1.4407575137 3.4334604677 3.4957732738 3 5.1073343124
-0.5702636413 2.2794644316 4.5822125337 3 5.1495466227
0.3446923720 3.5237432779 3.7560347585 3 5.1617222540
-0.5702636413 2.2794644316 -10.0000000000 3 10.2723492306
-0.5285465949 2.8614038349 -10.9331011678 2 11.3136950000
0.3446923720 3.5237432779 -10.8261777752 3 11.3904216225
0.3446923720 -11.0584692558 3.7560347585 3 11.6840212351
-1.4407575137 3.4334604677 -11.0864392599 3 11.6950232347
0.3910228419 0.9575319132 -11.7070040925 3 11.7526044369
-1.4407575137 -11.1487520660 3.4957732738 3 11.7724630228

POTENTIALS
0 30 Zn -1 5 1.0000000000
1 6 C -1 5 1 0.0000000000
2 6 C -1 5 2 0.0000000000
3 1 H -1 5 11 0.0000000000
4 16 S -1 5 1 0.0000000000

FOLP 0 1.1500000000
FOLP 1 1.1500000000
FOLP 2 1.1500000000
FOLP 3 0.8000000000
FOLP 4 1.1500000000

PRINT 0 0 0 0 0 0

EXAFS 20

RPATH 9.0000000000

END