SCFRAMP 3.0000000000 1

CONTROL 0 1 1 1 1 1

EXCHANGE 0 0.0000000000 0.0000000000 0

DEBYE 10.0 315.0 5 corvus-zn-1his-eps-charge-1.dym 16 0 3

RGRID 0.0100000000

EDGE K

SCF 9.0000000000 0 100 0.0500000000 0

EGRID
e_grid -200 -10.0000000000 20.0000000000
e_grid -10 10.0000000000 0.1000000000
k_grid last 20.0000000000 0.0250000000

CHSH 4

ABSOLUTE

ATOMS
0.0000000000 0.0000000000 0.0000000000 0 0.0000000000
-1.1441321273 1.2059388034 -1.1219322824 9 2.0055071101
-0.7613368937 1.8804433602 -2.1891873976 3 2.9846679142
-2.4898080181 1.4457297280 -0.9524157943 1 3.0325524330
-3.0458837705 1.0047485434 -0.1421450521 6 3.2104723632
0.2347925989 1.9104501110 -2.6005289253 6 3.2353821849
-1.8061525824 2.5359916732 -2.7011492613 8 4.1218501003
-2.9209489805 2.2814510224 -1.9400977358 2 4.1834125949
-1.7743356900 3.1264514982 -3.5191414934 7 5.0306384249
-4.2543652499 2.8579277949 -2.2476612846 4 5.5963699137
-5.4423581221 1.3585429267 -1.2294932428 6 5.7425216104
-5.0657510097 2.7744478969 -0.2402033590 6 5.7807518610
-5.3204172597 2.4438735184 -1.2496625887 5 5.9867365215
-4.5464538721 2.5510479680 -3.2578667127 6 6.1475022622
-4.1693266686 3.9494940481 -2.2765292495 6 6.1777320701
-6.2803566892 2.8864307497 -1.5184244053 6 7.0767206593
10.2347925989 2.8864307497 -1.5184244053 6 10.7418841313
11.0727911660 1.3585429267 -1.2294932428 6 11.2233683324
11.1947320283 2.4438735184 -1.2496625887 5 11.5263263682
11.4493982784 2.7744478969 -0.2402033590 6 11.7832075312

POTENTIALS
0 30 Zn -1 5 1.0000000000
1 6 C -1 5 1 0.0000000000
2 6 C -1 5 1 0.0000000000
3 6 C -1 5 1 0.0000000000
4 6 C -1 5 1 0.0000000000
5 6 C -1 5 2 0.0000000000
6 1 H -1 5 10 0.0000000000
7 1 H -1 5 1 0.0000000000
8 7 N -1 5 1 0.0000000000
9 7 N -1 5 1 0.0000000000

FOLP 0 1.1500000000
FOLP 1 1.1500000000
FOLP 2 1.1500000000
FOLP 3 1.1500000000
FOLP 4 1.1500000000
FOLP 5 1.1500000000
FOLP 6 0.8000000000
FOLP 7 0.8000000000
FOLP 8 1.1500000000
FOLP 9 1.1500000000

PRINT 0 0 0 0 0 0

EXAFS 20

RPATH 9.0000000000

END