SCFRAMP 3.0000000000 1

CONTROL 0 1 1 1 1 1

EXCHANGE 0 0.0000000000 0.0000000000 0

DEBYE 10.0 315.0 5 corvus-Hx56Hx1Cx3C-HHLH-1ia9-cluster1.dym 16 0 3

RGRID 0.0100000000

EDGE K

SCF 9.0000000000 0 100 0.0500000000 0

EGRID
e_grid -200 -10.0000000000 20.0000000000
e_grid -10 10.0000000000 0.1000000000
k_grid last 20.0000000000 0.0250000000

CHSH 4

ABSOLUTE

ATOMS
0.0000000000 0.0000000000 0.0000000000 0 0.0000000000
-1.3788248910 -0.2276514369 -1.5252689886 9 2.0686780185
-0.7330282383 -1.4937190817 1.2312080018 9 2.0698792807
2.1467104177 -0.4190734278 -0.6935018688 10 2.2945441808
-0.5509876127 2.0461679495 0.8999248270 10 2.3022283382
1.4924060423 0.3663171600 2.4364333218 6 2.8805678934
-2.2009687719 0.7268862849 -1.9162245718 3 3.0074148061
2.2072652739 1.9903759516 -0.6768129697 6 3.0482277169
-2.0672713558 -1.7233622828 1.4709204602 1 3.0671151620
-0.0658458977 -2.3193832151 2.0072394849 3 3.0680424590
-1.6315050165 -1.3305531337 -2.3143792547 2 3.1286629085
-2.2563812852 1.7213591072 -1.5022853370 6 3.2111049366
-2.8385247459 -1.1746755086 0.9541823836 6 3.2167606850
2.9594593917 1.2140091702 -0.5255358019 4 3.2416671691
0.1846678903 -2.3966972179 -2.2025973621 6 3.2603212915
0.7622725109 2.3742851384 2.1268232515 4 3.2774481601
1.0076478600 -2.4012212607 2.0713167965 6 3.3273970344
-1.0711417812 -3.0015185750 -1.1516400967 6 3.3886182116
1.0924467663 1.1979118135 3.0217496276 5 3.4291986618
-0.8890731923 -2.6100542163 -2.1582178939 4 3.5015337541
1.6597071292 2.7039765412 1.5999838730 6 3.5533175039
3.3251486549 1.3147754988 0.4988247133 6 3.6102734362
0.2037727862 0.8411656271 3.5482291408 6 3.6522613538
-2.9693580031 0.2915409795 -2.9185033453 8 4.1736967869
-0.9175356580 -3.0631879287 2.7299846166 8 4.2044985405
0.4138086003 3.2179690087 2.7275370754 6 4.2386342843
-2.2051451006 -2.7071043040 2.4084803245 2 4.2416808109
-2.6289000092 -1.0075676336 -3.1899078084 1 4.2546233230
1.8437758487 1.4799827363 3.7665735815 6 4.4471265807
4.1054467600 1.3919118100 -1.5042503697 5 4.5885597698
3.7517527361 1.3316398294 -2.5364618399 6 4.7204397987
-1.2605532342 -3.6540881867 -3.1972503722 5 5.0163497560
-3.6759990239 0.8315501932 -3.3925286183 7 5.0708672802
4.8664853671 0.6197822008 -1.3644399548 6 5.0920041432
-0.6477238625 -3.7721173507 3.3947088169 7 5.1159029957
-3.1142922063 -1.5742111592 -3.9658978554 6 5.2825469728
4.5818073377 2.3667495553 -1.3616307664 6 5.3337135545
-1.0530614370 -3.2968575820 -4.2088485851 6 5.4490930180
-2.3220193492 -3.9078668832 -3.1414860731 6 5.5255888539
-0.6882367010 -4.5693122892 -3.0384218077 6 5.5303066493
-3.4084625548 -3.3375092757 3.0130801562 4 5.6422723420
-4.2768794595 -2.9850958289 2.4523889109 6 5.7633936521
-3.3574935892 -4.4209431907 2.8618323540 6 6.2456053605
-3.6986739578 -1.9675627932 4.6722446594 6 6.2754571586
-3.5955532334 -3.0410881863 4.4997496259 5 6.5133683381
-2.7439059203 -3.3978936676 5.0836906187 6 6.7021348376
-4.4928048947 -3.5375445863 4.8737960408 6 7.5135481211

POTENTIALS
0 30 Zn -1 5 1.0000000000
1 6 C -1 5 2 0.0000000000
2 6 C -1 5 2 0.0000000000
3 6 C -1 5 2 0.0000000000
4 6 C -1 5 4 0.0000000000
5 6 C -1 5 4 0.0000000000
6 1 H -1 5 24 0.0000000000
7 1 H -1 5 2 0.0000000000
8 7 N -1 5 2 0.0000000000
9 7 N -1 5 2 0.0000000000
10 16 S -1 5 2 0.0000000000

FOLP 0 1.1500000000
FOLP 1 1.1500000000
FOLP 2 1.1500000000
FOLP 3 1.1500000000
FOLP 4 1.1500000000
FOLP 5 1.1500000000
FOLP 6 0.8000000000
FOLP 7 0.8000000000
FOLP 8 1.1500000000
FOLP 9 1.1500000000
FOLP 10 1.1500000000

PRINT 0 0 0 0 0 0

EXAFS 20

RPATH 9.0000000000

END