SCFRAMP 3.0000000000 1

CONTROL 0 1 1 1 1 1

EXCHANGE 0 0.0000000000 0.0000000000 0

DEBYE 10.0 315.0 5 corvus-Cx2Cx2Cx7C-LLLL-1axe-cluster2.dym 16 0 3

RGRID 0.0100000000

EDGE K

SCF 9.0000000000 0 100 0.0500000000 0

EGRID
e_grid -200 -10.0000000000 20.0000000000
e_grid -10 10.0000000000 0.1000000000
k_grid last 20.0000000000 0.0250000000

CHSH 4

ABSOLUTE

ATOMS
0.0000000000 0.0000000000 0.0000000000 0 0.0000000000
-1.5146959153 0.9028016154 1.5574028336 6 2.3526279049
-0.1631665858 1.2789747161 -1.9776716763 6 2.3608441114
2.1179906973 0.0016760066 1.0601484670 6 2.3685020952
-0.3272111387 -2.2758718407 -0.5726760060 6 2.3695184263
2.5540369561 -1.5601861566 -0.7107275329 3 3.0761045565
-2.1031219507 -1.2947083621 -1.8635571918 3 3.0939032127
-1.2311419943 2.8611441945 -0.5117195130 3 3.1565350579
0.2124881719 0.4688851664 3.1756966001 3 3.2171498905
-0.8696471471 0.3211815875 3.1649160114 1 3.2978988965
3.1933428501 -0.9364751499 -0.0810229442 1 3.3288119476
-1.5874964135 -2.2573701451 -1.8923548973 1 3.3461727230
-0.7594984419 -1.7918209173 2.7281999872 3 3.3511990769
-1.2295070193 2.7125734828 -1.5937216310 1 3.3778234186
-2.4850308216 -2.7116897103 0.7588494863 4 3.7555947348
-1.1933660331 -1.1263962132 3.4786432297 2 3.8462773740
3.4919230375 0.6003550338 -1.5729128270 3 3.8765974033
-3.1356472605 1.6949196674 -1.6337158636 3 3.9209774220
-0.2912849937 -1.7018803166 -3.5245835032 3 3.9247843802
3.8072553801 -1.6115367315 0.5214708699 3 4.1670344412
-2.3269666929 -3.0301838288 -1.6655556171 3 4.1678367938
4.0876339675 -0.0603962131 -0.9373567684 2 4.1941670050
-0.7707149257 3.5967882729 -2.0441855824 3 4.2082754273
-1.0053660327 -2.4893962120 -3.2713567656 2 4.2319770141
-2.6523660337 2.5586037875 -2.0983567683 2 4.2408253967
-1.2933157958 0.9725610438 3.9340679193 3 4.2538724857
-2.2736239397 -1.2908975780 3.4877406676 3 4.3589124034
-3.4250057062 -2.9278412867 1.0938788364 5 4.6367542092
-0.7953618531 -1.4103142008 4.4587944425 3 4.7436731024
4.7325531964 0.5666323439 -0.3163810993 3 4.7768429920
-2.6703991179 2.4093148118 -3.1809403648 3 4.8014800755
-0.4802969767 -3.4470064012 -3.3177952723 3 4.8083577014
-3.3356166371 -3.1088945480 2.0878369397 4 5.0150400544
4.7270005545 -0.6706366913 -1.5846183389 3 5.0304376642
-1.7924883355 -2.4947423669 -4.0335418981 3 5.0701295993
-3.2471943951 3.4487849325 -1.8664030049 3 5.0913504227
-3.6805455703 -3.8127200553 0.6684445618 4 5.3413545143

POTENTIALS
0 30 Zn -1 5 1.0000000000
1 6 C -1 5 4 0.0000000000
2 6 C -1 5 4 0.0000000000
3 1 H -1 5 20 0.0000000000
4 1 H -1 5 3 0.0000000000
5 7 N -1 5 1 0.0000000000
6 16 S -1 5 4 0.0000000000

FOLP 0 1.1500000000
FOLP 1 1.1500000000
FOLP 2 1.1500000000
FOLP 3 0.8000000000
FOLP 4 0.8000000000
FOLP 5 1.1500000000
FOLP 6 1.1500000000

PRINT 0 0 0 0 0 0

EXAFS 20

RPATH 9.0000000000

END