SCFRAMP 3.0000000000 1

CONTROL 0 1 1 1 1 1

EXCHANGE 0 0.0000000000 0.0000000000 0

DEBYE 10.0 315.0 5 corvus-zn-1cys-charge-2.dym 16 0 3

RGRID 0.0100000000

EDGE K

SCF 9.0000000000 0 100 0.0500000000 0

EGRID
e_grid -200 -10.0000000000 20.0000000000
e_grid -10 10.0000000000 0.1000000000
k_grid last 20.0000000000 0.0250000000

CHSH 4

ABSOLUTE

ATOMS
0.0000000000 0.0000000000 0.0000000000 0 0.0000000000
-0.6560237853 1.8876645077 1.0896477566 4 2.2761759014
-0.4645226460 0.6125599732 3.0421620499 3 3.1377955554
-0.0637314754 1.5903116606 2.7479361658 1 3.1755796400
1.0206876629 1.4498985235 2.6422602833 3 3.1820666930
-0.4325628298 2.7041301600 3.6971175974 2 4.6008813344
-1.5144683546 2.7982718824 3.7951942156 3 4.9525184562
-0.0184172114 3.6585395371 3.3703446087 3 4.9743817223
-0.0169668495 2.4664261884 4.6782630403 3 5.2886379240
-0.0169668495 2.4664261884 -10.0000000000 3 10.2996866951
-0.4325628298 2.7041301600 -10.9811454429 2 11.3174637513
-1.5144683546 2.7982718824 -10.8830688247 3 11.3386563123
-0.0184172114 -11.0197235033 3.3703446087 3 11.5236221763
-0.4645226460 0.6125599732 -11.6361009904 3 11.6614689156
-0.0184172114 3.6585395371 -11.3079184316 3 11.8850439627

POTENTIALS
0 30 Zn -1 5 1.0000000000
1 6 C -1 5 1 0.0000000000
2 6 C -1 5 2 0.0000000000
3 1 H -1 5 10 0.0000000000
4 16 S -1 5 1 0.0000000000

FOLP 0 1.1500000000
FOLP 1 1.1500000000
FOLP 2 1.1500000000
FOLP 3 0.8000000000
FOLP 4 1.1500000000

PRINT 0 0 0 0 0 0

EXAFS 20

RPATH 9.0000000000

END