SCFRAMP 3.0000000000 1

CONTROL 0 1 1 1 1 1

EXCHANGE 0 0.0000000000 0.0000000000 0

DEBYE 10.0 315.0 5 corvus-Hx46Hx2Cx4C-LLHL-1rni-cluster1.dym 16 0 3

RGRID 0.0100000000

EDGE K

SCF 9.0000000000 0 100 0.0500000000 0

EGRID
e_grid -200 -10.0000000000 20.0000000000
e_grid -10 10.0000000000 0.1000000000
k_grid last 20.0000000000 0.0250000000

CHSH 4

ABSOLUTE

ATOMS
0.0000000000 0.0000000000 0.0000000000 0 0.0000000000
-0.2510934064 -0.7774096881 -1.8901688146 10 2.0591629050
-1.5931405143 1.3278887085 -0.0634146889 10 2.0749473591
-0.2274867128 -1.7709634492 1.4426658078 11 2.2955056906
1.9176109262 1.2577926873 0.1193374223 11 2.2964136233
-2.4351680218 1.4340537368 -1.0747208195 4 3.0235043003
-0.1452015308 2.2753606560 2.0007918738 7 3.0334003563
-0.5463135778 -2.0158221309 -2.2203085577 4 3.0482400628
-0.1707958290 -0.0649928733 -3.0633399261 3 3.0687858824
2.8976145444 -0.9126733287 0.4904669418 7 3.0772878439
-1.8971651667 2.3399168917 0.8227301434 2 3.1227122216
3.2018625634 -0.0288643168 -0.0753051599 5 3.2028780636
0.0651324195 0.9864253158 -3.0684581707 7 3.2237730505
1.7972347957 -0.9878037842 2.4914851206 7 3.2269656541
0.8115605512 -1.2759637601 2.8615816708 5 3.2365666537
-2.4656967944 0.8000932641 -1.9456548656 7 3.2412008221
-0.6803727787 -2.8391520180 -1.5367555773 7 3.2992891664
2.5825902958 -0.8065690121 -1.9940232783 7 3.3610199407
0.3723846611 -0.3917041054 3.3280960449 7 3.3716947854
-1.7280173234 0.5216304910 2.8758417288 7 3.3953803746
-1.2103799653 2.4897819244 2.1315415182 5 3.4939237164
3.4787842063 -0.4028082195 -1.5180678954 6 3.8168998088
-1.7972157942 1.5651917805 3.1929321054 6 3.9842973471
4.1108187677 0.3554468997 0.3939572264 7 4.1449216803
-3.2616706470 2.4659294195 -0.8805991294 9 4.1826735634
-0.6608509877 -2.1204024551 -3.5527213317 9 4.1898280944
-0.4308885925 -0.8908907229 -4.1183181473 2 4.2355513952
-2.9404655839 3.0570559303 0.3113824146 1 4.2531033162
3.7999295962 0.4696391609 -2.0923410875 7 4.3632461658
-1.2921301640 3.5295951827 2.4567553805 7 4.4903551657
-1.2612020540 1.6705268859 4.1389628747 7 4.6381358729
0.9347842065 -2.3938082210 3.8779321100 6 4.6521496925
4.2681543391 -1.1596214865 -1.5764881206 7 4.6954422847
-2.8501498109 1.7977226786 3.3681950615 7 4.7644410738
1.3931542721 -3.2801223467 3.4320324419 7 4.9476184289
-0.0459226109 -2.6816843936 4.2652356605 7 5.0384298459
-3.9880340340 2.7604493892 -1.5143496571 8 5.0811171184
-0.8826871771 -2.9670071606 -4.0542236308 8 5.1008820210
-3.4712290226 3.9145860618 0.6896603529 7 5.2772195676
1.5542753546 -2.0781084659 4.7229558897 7 5.3889348679
-0.4946336356 -0.6399677470 -5.5803323830 5 5.6386461722
0.5786010809 1.2437104031 -5.5757238989 7 5.7419762952
-1.1766004382 1.4119780578 -5.4545993726 7 5.7559295463
-0.3742157940 0.8351917815 -5.9200678960 6 5.9903911947
0.2994234949 -1.2063408050 -6.0794745286 7 6.2052335259
-1.4386562997 -1.0381831327 -5.9672212190 7 6.2253743054
-0.4321760471 0.9816129227 -6.9994936808 7 7.0811900026

POTENTIALS
0 30 Zn -1 5 1.0000000000
1 6 C -1 5 1 0.0000000000
2 6 C -1 5 2 0.0000000000
3 6 C -1 5 1 0.0000000000
4 6 C -1 5 2 0.0000000000
5 6 C -1 5 4 0.0000000000
6 6 C -1 5 4 0.0000000000
7 1 H -1 5 24 0.0000000000
8 1 H -1 5 2 0.0000000000
9 7 N -1 5 2 0.0000000000
10 7 N -1 5 2 0.0000000000
11 16 S -1 5 2 0.0000000000

FOLP 0 1.1500000000
FOLP 1 1.1500000000
FOLP 2 1.1500000000
FOLP 3 1.1500000000
FOLP 4 1.1500000000
FOLP 5 1.1500000000
FOLP 6 1.1500000000
FOLP 7 0.8000000000
FOLP 8 0.8000000000
FOLP 9 1.1500000000
FOLP 10 1.1500000000
FOLP 11 1.1500000000

PRINT 0 0 0 0 0 0

EXAFS 20

RPATH 9.0000000000

END