SCFRAMP 3.0000000000 1

CONTROL 0 1 1 1 1 1

EXCHANGE 0 0.0000000000 0.0000000000 0

DEBYE 10.0 315.0 5 corvus-Cx17CHx22H-LLLL-1clc-cluster1.dym 16 0 3

RGRID 0.0100000000

EDGE K

SCF 9.0000000000 0 100 0.0500000000 0

EGRID
e_grid -200 -10.0000000000 20.0000000000
e_grid -10 10.0000000000 0.1000000000
k_grid last 20.0000000000 0.0250000000

CHSH 4

ABSOLUTE

ATOMS
0.0000000000 0.0000000000 0.0000000000 0 0.0000000000
-1.4131457413 1.3361877760 -0.6772186116 10 2.0593697353
0.4026777977 0.8993453810 1.8190119207 10 2.0687619222
-1.0269724010 -2.0411606100 0.2247293649 11 2.2959774031
1.8024029750 0.4566683272 -1.3727277251 11 2.3111866763
0.4519838578 2.2163763349 1.8897521792 4 2.9475034800
-1.2970610128 2.0967684280 -1.7440974292 4 3.0200465152
2.8991943812 0.5112893401 0.7702330338 7 3.0430254313
-2.6621311071 1.5732984947 -0.1571231656 3 3.0962716086
0.3335883915 2.8977720339 1.0624722698 7 3.1043858168
-1.2317049249 -1.0845269713 -2.6579262511 7 3.1237585902
0.5907541589 0.4179037332 3.0977067009 2 3.1811037096
3.2151604837 0.2372416394 -0.2386578397 5 3.2327230157
-2.3503608980 -1.9651164829 -1.0343919960 5 3.2335500527
-0.4303170212 2.1593841892 -2.3825992927 7 3.2442090261
-2.9611670251 -1.0799058920 -0.8467422030 7 3.2636910461
-3.0133036902 1.0675933784 0.7283187914 7 3.2787502212
-0.1676746781 -1.5423248598 2.8936636065 7 3.2833168958
2.1707370223 -1.5882835266 1.9944780930 7 3.3485349997
3.0039490285 -1.9001396629 0.0013421710 7 3.5544679357
0.6414842938 -1.0314124857 3.4239013992 5 3.6329622358
-1.8575282139 -1.9602995594 -2.4673266560 6 3.6579893733
3.7734717880 -1.1692995606 -0.2573266555 6 3.9588594071
1.9754717869 -1.6772995601 3.0636733440 6 4.0127193964
-1.2613900299 -2.8509858686 -2.6800890379 7 4.1112166668
3.9873779290 0.9501458639 -0.5377674809 7 4.1341448662
0.6629880675 2.6041532122 3.1504410881 9 4.1408267508
-2.4195758216 2.8062123358 -1.9258257238 9 4.1758806914
-2.9858547173 -2.8367141822 -0.8590965408 7 4.2071751343
-3.3098077434 2.4951799398 -0.9274663055 2 4.2474632404
0.7526057114 1.4852946654 3.9343512665 1 4.2721932878
4.1488377361 -1.4239950777 -1.2515541545 7 4.5614695377
-2.7004498683 -1.9354916300 -3.1655672450 7 4.5890492832
0.4503129635 -1.1483442055 4.4933415823 7 4.6595702328
2.7985389721 -1.1982241386 3.5989333468 7 4.7137970575
1.9708023667 -2.7392376583 3.3188703606 7 4.7331158223
4.5982710177 -1.2741744233 0.4557534411 7 4.7932586006
0.7327478537 3.5590339811 3.4653419116 8 5.0211788317
-2.5779200614 3.4613841535 -2.6759800701 8 5.0781612260
0.9201573877 1.5393684018 4.9969986758 7 5.3090809431
-4.6769757338 3.0657483468 -0.8591709908 5 5.6578343676
-5.1184052127 2.7636916548 0.0926855326 7 5.8176158426
-5.6526459630 1.5168856486 -2.0190565228 7 6.1911176452
-4.6191776102 4.1590299286 -0.8500369076 7 6.2735073513
-5.5545282163 2.6047004412 -2.0173266570 6 6.4580844633
-5.1296354049 2.9073475379 -2.9771773036 7 6.6052565272
-6.5530759272 3.0394645270 -1.9399301840 7 7.4796041230

POTENTIALS
0 30 Zn -1 5 1.0000000000
1 6 C -1 5 1 0.0000000000
2 6 C -1 5 2 0.0000000000
3 6 C -1 5 1 0.0000000000
4 6 C -1 5 2 0.0000000000
5 6 C -1 5 4 0.0000000000
6 6 C -1 5 4 0.0000000000
7 1 H -1 5 24 0.0000000000
8 1 H -1 5 2 0.0000000000
9 7 N -1 5 2 0.0000000000
10 7 N -1 5 2 0.0000000000
11 16 S -1 5 2 0.0000000000

FOLP 0 1.1500000000
FOLP 1 1.1500000000
FOLP 2 1.1500000000
FOLP 3 1.1500000000
FOLP 4 1.1500000000
FOLP 5 1.1500000000
FOLP 6 1.1500000000
FOLP 7 0.8000000000
FOLP 8 0.8000000000
FOLP 9 1.1500000000
FOLP 10 1.1500000000
FOLP 11 1.1500000000

PRINT 0 0 0 0 0 0

EXAFS 20

RPATH 9.0000000000

END