SCFRAMP 3.0000000000 1

CONTROL 0 1 1 1 1 1

EXCHANGE 0 0.0000000000 0.0000000000 0

DEBYE 10.0 315.0 5 corvus-Cx5Cx9Cx2C-LLHH-1dsz-cluster2.dym 16 0 3

RGRID 0.0100000000

EDGE K

SCF 9.0000000000 0 100 0.0500000000 0

EGRID
e_grid -200 -10.0000000000 20.0000000000
e_grid -10 10.0000000000 0.1000000000
k_grid last 20.0000000000 0.0250000000

CHSH 4

ABSOLUTE

ATOMS
0.0000000000 0.0000000000 0.0000000000 0 0.0000000000
-1.8654118217 0.6692499893 1.2698118410 4 2.3537372250
-0.6200016115 0.0423174121 -2.2740627371 4 2.3574465198
1.6326371060 1.6625234255 0.4136437932 4 2.3665564113
0.7602447376 -2.1670048709 0.5794318728 4 2.3684643689
1.7287978735 1.4712050904 -1.9693942298 3 3.0052787121
2.5175870065 -1.6344410400 -0.9835915669 3 3.1586538618
-3.1533270311 -0.5280214841 -0.3708291861 3 3.2186631290
0.6476202942 -1.0137135807 -3.0498256239 1 3.2784849557
2.4371518888 1.8263707738 -1.2168780777 1 3.2796542178
0.6486728510 -1.9810603199 -2.5410042289 3 3.2866516320
2.4784892679 -2.1876264995 -0.0435361927 1 3.3061328093
-3.2069825080 -0.4376009081 0.7169618752 1 3.3151569634
1.6317913585 -0.5671798280 -2.8843014514 3 3.3620872769
-2.2364301872 -2.3259636972 1.1073795720 3 3.4114537399
3.1152240139 -1.6530291973 0.6661802338 3 3.5890001794
3.3109778131 1.1698001306 -1.2516752329 3 3.7279615493
-3.1689113041 -1.8112977517 1.3545521278 2 3.8932775223
-4.1531613301 0.0568247648 0.9531257256 3 4.2615052196
-3.2323753315 -1.7382754382 2.4432016224 3 4.4089778805
2.8470886925 3.2527022437 -1.5204478686 2 4.5823299347
1.9754590896 3.9121144431 -1.5378853004 3 4.6445849360
3.0000887008 -3.5962977600 -0.2514478695 2 4.6901082954
0.4100886944 -1.1942977552 -4.5344478651 2 4.7069881354
-4.0027125371 -2.4293066053 1.0038080905 3 4.7886186860
2.3980336068 -4.1291386864 -0.9920697809 3 4.8769410414
-0.5627121917 -1.6565260951 -4.7221328756 3 5.0357981105
0.4278461346 -0.2324360866 -5.0536481612 3 5.0770501855
3.5397408763 3.6356272233 -0.7659615039 3 5.1316905405
2.9672841364 -4.1681578514 0.6797728804 3 5.1614345088
3.3418846398 3.3160965497 -2.4956138984 3 5.3284874029
4.0369013540 -3.5790480741 -0.6029300052 3 5.4285985530
1.1809466439 -1.8331622131 -4.9777819283 3 5.4344670024

POTENTIALS
0 30 Zn -1 5 1.0000000000
1 6 C -1 5 4 0.0000000000
2 6 C -1 5 4 0.0000000000
3 1 H -1 5 20 0.0000000000
4 16 S -1 5 4 0.0000000000

FOLP 0 1.1500000000
FOLP 1 1.1500000000
FOLP 2 1.1500000000
FOLP 3 0.8000000000
FOLP 4 1.1500000000

PRINT 0 0 0 0 0 0

EXAFS 20

RPATH 9.0000000000

END