SCFRAMP 3.0000000000 1

CONTROL 0 1 1 1 1 1

EXCHANGE 0 0.0000000000 0.0000000000 0

DEBYE 10.0 315.0 5 corvus-zn-1his-eps-charge-2.dym 16 0 3

RGRID 0.0100000000

EDGE K

SCF 9.0000000000 0 100 0.0500000000 0

EGRID
e_grid -200 -10.0000000000 20.0000000000
e_grid -10 10.0000000000 0.1000000000
k_grid last 20.0000000000 0.0250000000

CHSH 4

ABSOLUTE

ATOMS
0.0000000000 0.0000000000 0.0000000000 0 0.0000000000
-1.0677335325 1.0806516371 -1.1023172075 9 1.8769566013
-0.6768519240 1.7374895235 -2.1850553798 3 2.8725364026
-2.4140524289 1.3313310841 -0.9213506789 1 2.9067126893
-2.9644839795 0.9037067776 -0.1013395596 6 3.1008258433
0.3178908108 1.7511667129 -2.5993534769 6 3.1502821972
-1.7194656860 2.3890804268 -2.6878607767 8 3.9860836777
-2.8343860303 2.1569925329 -1.9170228798 2 4.0449150396
-1.6868600421 2.9694990499 -3.5141102829 7 4.9002441255
-4.1629677320 2.7469267530 -2.2141502522 4 5.4569559521
-4.9785749571 2.5991669767 -0.2115757234 6 5.6201994505
-5.3619980180 1.2207048993 -1.2508599681 6 5.6396625658
-5.2330913768 2.3052173661 -1.2323337649 5 5.8496084460
-4.0705546427 3.8381112904 -2.2078413485 6 6.0145720377
-4.4484163003 2.4718964215 -3.2348479725 6 6.0301675685
-6.1889107207 2.7638101445 -1.4874269850 6 6.9392868120
10.3178908108 2.7638101445 -1.4874269850 6 10.7847093764
11.1448035135 1.2207048993 -1.2508599681 6 11.2810201872
11.2737101547 2.3052173661 -1.2323337649 5 11.5727790208
11.5282265744 2.5991669767 -0.2115757234 6 11.8194941182

POTENTIALS
0 30 Zn -1 5 1.0000000000
1 6 C -1 5 1 0.0000000000
2 6 C -1 5 1 0.0000000000
3 6 C -1 5 1 0.0000000000
4 6 C -1 5 1 0.0000000000
5 6 C -1 5 2 0.0000000000
6 1 H -1 5 10 0.0000000000
7 1 H -1 5 1 0.0000000000
8 7 N -1 5 1 0.0000000000
9 7 N -1 5 1 0.0000000000

FOLP 0 1.1500000000
FOLP 1 1.1500000000
FOLP 2 1.1500000000
FOLP 3 1.1500000000
FOLP 4 1.1500000000
FOLP 5 1.1500000000
FOLP 6 0.8000000000
FOLP 7 0.8000000000
FOLP 8 1.1500000000
FOLP 9 1.1500000000

PRINT 0 0 0 0 0 0

EXAFS 20

RPATH 9.0000000000

END