SCFRAMP 3.0000000000 1

CONTROL 0 1 1 1 1 1

EXCHANGE 0 0.0000000000 0.0000000000 0

DEBYE 10.0 315.0 5 corvus-zn-1his-delta-charge-3.dym 16 0 3

RGRID 0.0100000000

EDGE K

SCF 9.0000000000 0 100 0.0500000000 0

EGRID
e_grid -200 -10.0000000000 20.0000000000
e_grid -10 10.0000000000 0.1000000000
k_grid last 20.0000000000 0.0250000000

CHSH 4

ABSOLUTE

ATOMS
0.0000000000 0.0000000000 0.0000000000 0 0.0000000000
0.3699646164 0.7795453737 1.7387952021 9 1.9411268794
0.5811806611 2.0840195368 1.9439139423 3 2.9085580286
-0.2366935182 -1.7525145340 2.3713384907 6 2.9581374632
0.4237559092 0.1559691633 2.9360990669 2 2.9706183163
0.5959212449 2.8512463010 1.1824121323 6 3.1436962401
0.2993275790 -1.2701274562 3.1904218975 4 3.4469715169
2.2800800899 -1.7720048741 2.4314022867 6 3.7749812675
0.7733678098 2.3210679030 3.2576480732 8 4.0740305532
0.6901061523 1.1780275497 3.9207013185 1 4.1516134499
1.7067228743 -1.8928397657 3.3501281958 5 4.2094066419
-0.2572534477 -1.4071121385 4.1217233873 6 4.3628829445
1.5737105492 -2.9541674839 3.5587471657 6 4.8855247216
2.2497236941 -1.4347458096 4.1770825732 6 4.9565886515
0.9430080543 3.2383189346 3.6618427935 7 4.9784602396
0.8054744952 1.0859718329 4.9913582427 6 5.1712456034
0.8054744952 1.0859718329 -11.2011281759 6 11.2824375202

POTENTIALS
0 30 Zn -1 5 1.0000000000
1 6 C -1 5 1 0.0000000000
2 6 C -1 5 1 0.0000000000
3 6 C -1 5 1 0.0000000000
4 6 C -1 5 1 0.0000000000
5 6 C -1 5 1 0.0000000000
6 1 H -1 5 8 0.0000000000
7 1 H -1 5 1 0.0000000000
8 7 N -1 5 1 0.0000000000
9 7 N -1 5 1 0.0000000000

FOLP 0 1.1500000000
FOLP 1 1.1500000000
FOLP 2 1.1500000000
FOLP 3 1.1500000000
FOLP 4 1.1500000000
FOLP 5 1.1500000000
FOLP 6 0.8000000000
FOLP 7 0.8000000000
FOLP 8 1.1500000000
FOLP 9 1.1500000000

PRINT 0 0 0 0 0 0

EXAFS 20

RPATH 9.0000000000

END