SCFRAMP 3.0000000000 1

CONTROL 0 1 1 1 1 1

EXCHANGE 0 0.0000000000 0.0000000000 0

DEBYE 10.0 315.0 5 corvus-1clc-1eps-1delta-charge-1.dym 16 0 3

RGRID 0.0100000000

EDGE K

SCF 9.0000000000 0 100 0.0500000000 0

EGRID
e_grid -200 -10.0000000000 20.0000000000
e_grid -10 10.0000000000 0.1000000000
k_grid last 20.0000000000 0.0250000000

CHSH 4

ABSOLUTE

ATOMS
0.0000000000 0.0000000000 0.0000000000 0 0.0000000000
-1.5483248454 0.8873542875 -0.8663031427 10 1.9837309781
0.4479703358 0.9114585927 1.7053592128 10 1.9848637819
0.0975252444 -2.3152695944 -0.2337410787 11 2.3290812265
1.8729971728 -0.2920880772 -1.3813206777 11 2.3455235383
1.3594332219 1.8648341531 1.7960110867 4 2.9242641684
2.6579379303 -0.9832387316 0.7786140335 7 2.9389849026
-1.8073277094 0.9487846220 -2.1577804596 4 2.9702932885
-2.5664013824 1.5545808658 -0.2221091552 3 3.0087323245
-1.8455544156 -0.3194659340 2.3668311044 7 3.0182808121
-0.1434500942 0.7837926607 2.9460394711 2 3.0518940725
-1.8490387904 -1.8750457601 -1.5787834171 7 3.0703905499
1.9930587450 2.2125696764 0.9959286822 7 3.1400034513
-2.5889030009 1.6502248386 0.8506109602 7 3.1857808731
-1.2060642242 0.5271565151 -2.9474346077 7 3.2279801224
3.1493187838 -0.7109707256 -0.1574946764 5 3.2324128368
-1.0703377216 -2.6379253098 -1.5891832612 5 3.2603337583
0.0143145553 -1.9740091578 2.7456004150 7 3.3816029779
-1.1859258711 -0.2350159046 3.2360207452 5 3.4544873586
0.0347949629 -1.7775704254 -3.2342643419 7 3.6907225769
3.7071895617 0.2105490794 0.0286081848 7 3.7132739987
-0.5975987160 -1.6022165719 3.5699913648 6 3.9584164148
-0.4138531311 -2.7311439130 -2.9509088939 6 4.0420644215
1.3794627335 2.3527609980 3.0359154393 9 4.0810763656
-2.9433640892 1.6240668430 -2.3582400867 9 4.1063708525
-1.5393126892 -3.5907437168 -1.3292623124 7 4.1267253713
-3.4526752833 2.0233973301 -1.1471260938 2 4.1630519625
0.4408924175 1.6905105396 3.7811420223 1 4.1652427301
-1.7997954601 0.1186490271 4.0673591669 7 4.4493540972
4.0643635281 -1.8166533815 -0.6353448018 6 4.4969927078
3.5031825024 -2.7381733368 -0.8034255809 7 4.5183374743
0.3711693568 -3.4899754468 -2.9572893656 7 4.5894722685
-1.3930756642 -2.3273275353 3.7546765321 7 4.6319228322
0.0292857217 -1.5448671689 4.4625357459 7 4.7224673113
-1.1600806606 -3.0002341324 -3.7036128696 7 4.9055010219
1.9847313639 3.0903553130 3.3623258194 8 4.9794266199
-3.3575333555 1.8060171449 -3.2601855459 8 5.0163271379
4.5586566927 -1.5416340668 -1.5694940113 7 5.0617485012
0.2715942328 1.9130017349 4.8211343940 7 5.1939075762
4.8358891092 -2.0159543661 0.1136294390 7 5.2404968402
-4.7132225580 2.7972231574 -1.0179114540 5 5.5745015922
-4.2867512679 3.6958246255 0.9071952105 7 5.7322211441
-5.2042654580 2.1879256884 1.0028910465 7 5.7338632899
-5.0690799710 3.1051683029 0.4252207767 6 5.9597361226
-5.5238117996 2.2340108856 -1.4928179836 7 6.1426221572
-4.6179946905 3.7277949024 -1.5878541656 7 6.1435828835
-5.9987493193 3.6736840998 0.4714901916 7 7.0500532808

POTENTIALS
0 30 Zn -1 5 1.0000000000
1 6 C -1 5 1 0.0000000000
2 6 C -1 5 2 0.0000000000
3 6 C -1 5 1 0.0000000000
4 6 C -1 5 2 0.0000000000
5 6 C -1 5 4 0.0000000000
6 6 C -1 5 4 0.0000000000
7 1 H -1 5 24 0.0000000000
8 1 H -1 5 2 0.0000000000
9 7 N -1 5 2 0.0000000000
10 7 N -1 5 2 0.0000000000
11 16 S -1 5 2 0.0000000000

FOLP 0 1.1500000000
FOLP 1 1.1500000000
FOLP 2 1.1500000000
FOLP 3 1.1500000000
FOLP 4 1.1500000000
FOLP 5 1.1500000000
FOLP 6 1.1500000000
FOLP 7 0.8000000000
FOLP 8 0.8000000000
FOLP 9 1.1500000000
FOLP 10 1.1500000000
FOLP 11 1.1500000000

PRINT 0 0 0 0 0 0

EXAFS 20

RPATH 9.0000000000

END