SCFRAMP 3.0000000000 1

CONTROL 0 1 1 1 1 1

EXCHANGE 0 0.0000000000 0.0000000000 0

DEBYE 10.0 315.0 5 corvus-zn-1cys-charge-0.dym 16 0 3

RGRID 0.0100000000

EDGE K

SCF 9.0000000000 0 100 0.0500000000 0

EGRID
e_grid -200 -10.0000000000 20.0000000000
e_grid -10 10.0000000000 0.1000000000
k_grid last 20.0000000000 0.0250000000

CHSH 4

ABSOLUTE

ATOMS
0.0000000000 0.0000000000 0.0000000000 0 0.0000000000
-0.8085300206 1.8086630802 1.1439448199 4 2.2877046756
-0.1200714232 1.4925024317 2.8120467070 1 3.1858417000
0.9625132210 1.3828437298 2.7345310779 3 3.2119073302
-0.5248787153 0.5524321890 3.1895768937 3 3.2793413592
-0.4691571024 2.6312455394 3.7483282700 2 4.6036427202
-0.0555562656 3.5763843928 3.3888509636 3 4.9272632036
-1.5516677377 2.7479776640 3.8391575132 3 4.9697267954
-0.0626686618 2.4383408339 4.7455754158 3 5.3357210770
-0.0626686618 2.4383408339 -10.0000000000 3 10.2931741161
-0.4691571024 2.6312455394 -10.9972471459 2 11.3173762977
-1.5516677377 2.7479776640 -10.9064179027 3 11.3538101745
-0.5248787153 0.5524321890 -11.5559985222 3 11.5810958391
-0.0555562656 -11.1691910230 3.3888509636 3 11.6721131532
-0.0555562656 3.5763843928 -11.3567244523 3 11.9066704879

POTENTIALS
0 30 Zn -1 5 1.0000000000
1 6 C -1 5 1 0.0000000000
2 6 C -1 5 2 0.0000000000
3 1 H -1 5 10 0.0000000000
4 16 S -1 5 1 0.0000000000

FOLP 0 1.1500000000
FOLP 1 1.1500000000
FOLP 2 1.1500000000
FOLP 3 0.8000000000
FOLP 4 1.1500000000

PRINT 0 0 0 0 0 0

EXAFS 20

RPATH 9.0000000000

END