SCFRAMP 3.0000000000 1

CONTROL 0 1 1 1 1 1

EXCHANGE 0 0.0000000000 0.0000000000 0

DEBYE 10.0 315.0 5 corvus-Cx4C-Cx4C-LS-LL-1dmk-cluster1.dym 16 0 3

RGRID 0.0100000000

EDGE K

SCF 9.0000000000 0 100 0.0500000000 0

EGRID
e_grid -200 -10.0000000000 20.0000000000
e_grid -10 10.0000000000 0.1000000000
k_grid last 20.0000000000 0.0250000000

CHSH 4

ABSOLUTE

ATOMS
0.0000000000 0.0000000000 0.0000000000 0 0.0000000000
0.0698792616 -1.6895706270 1.6413519982 4 2.3566010263
1.9788883987 0.1201136663 -1.2783659845 4 2.3589502279
-1.7349913076 -0.1876562708 -1.5995259584 4 2.3672543178
-0.6468380235 1.9826248852 1.1201730521 4 2.3672744942
-0.1016239268 -2.7328294759 -1.5207888518 3 3.1291345606
1.5333786745 -2.7549824909 0.0573492570 3 3.1534849963
2.1383949098 1.2538985418 2.0478300779 3 3.2153697099
3.1241217978 -0.3173235262 0.7986566560 3 3.2401672305
-0.0457080119 0.9038501468 3.1812359633 3 3.3074607427
-1.0633361659 -1.3339323358 -2.8506373427 1 3.3220765400
0.1915067869 1.8732644861 2.7369347214 1 3.3221388221
1.4493398531 -2.7727040111 1.1456321357 1 3.3318082979
-0.1240776339 -0.9224847255 -3.2273531532 3 3.3588959054
3.3383680050 -0.5272839952 -0.2512101982 1 3.3890759673
2.3772037264 -2.3589328416 1.5420445546 3 3.6869449570
-0.8307135038 -2.7395787101 -2.3347863220 2 3.6941309673
3.3703656424 -1.6118314739 -0.3569359375 3 3.7529679625
1.6952864973 2.0424212924 2.6612136811 2 3.7586619029
-1.7566761277 -3.1750110603 -1.9501315311 3 4.1194197697
1.9605255818 3.0032281925 2.2125086186 3 4.2140520311
-0.2410539755 2.6444455931 3.3801914894 3 4.2984757786
-1.7695009055 -1.3524783744 -3.6853203764 3 4.3060326850
-0.4494078304 -3.3903114947 -3.1292778760 3 4.6355754178
1.2832864946 -4.1925787051 1.6302136784 2 4.6778346553
2.1470826179 1.9924043827 3.6579130505 3 4.6861462714
4.6782864934 0.0524212923 -0.6347863208 2 4.7214474666
0.3795838050 -4.6484513081 1.2164371462 3 4.8199484188
4.6937438573 1.1375041497 -0.5011852726 3 4.8555467010
1.2043888788 -4.2307971064 2.7202737393 3 5.1720485249
4.9107677055 -0.1559461481 -1.6827849174 3 5.1934308252
2.1401216834 -4.8064051281 1.3329888920 3 5.4275694801
5.4771755766 -0.3769115158 -0.0209208106 3 5.4901686922

POTENTIALS
0 30 Zn -1 5 1.0000000000
1 6 C -1 5 4 0.0000000000
2 6 C -1 5 4 0.0000000000
3 1 H -1 5 20 0.0000000000
4 16 S -1 5 4 0.0000000000

FOLP 0 1.1500000000
FOLP 1 1.1500000000
FOLP 2 1.1500000000
FOLP 3 0.8000000000
FOLP 4 1.1500000000

PRINT 0 0 0 0 0 0

EXAFS 20

RPATH 9.0000000000

END