SCFRAMP 3.0000000000 1

CONTROL 0 1 1 1 1 1

EXCHANGE 0 0.0000000000 0.0000000000 0

DEBYE 10.0 315.0 5 corvus-1bto-4cys-charge--1.dym 16 0 3

RGRID 0.0100000000

EDGE K

SCF 9.0000000000 0 100 0.0500000000 0

EGRID
e_grid -200 -10.0000000000 20.0000000000
e_grid -10 10.0000000000 0.1000000000
k_grid last 20.0000000000 0.0250000000

CHSH 4

ABSOLUTE

ATOMS
0.0000000000 0.0000000000 0.0000000000 0 0.0000000000
-1.8221016268 -1.3120859971 0.3911583562 4 2.2791728460
2.0518175059 -0.9935726309 -0.0142920951 4 2.2797688291
-0.2057550400 2.0945509793 1.1538896875 4 2.4001958987
-0.1828154424 1.6607541813 -1.7386415858 4 2.4113068034
-0.6016718236 -1.7311217756 -2.3425429335 3 2.9742728490
-2.4984902528 1.4653382296 0.8637100600 3 3.0225262179
2.4308713241 2.0115759839 -0.1882404278 3 3.1608555475
-1.4191155169 -2.7681353850 -0.6362457059 1 3.1751017241
-2.5203744801 1.5530943608 -1.2588594272 3 3.2170043008
-0.4607904274 -3.1758842781 -0.3073951415 3 3.2238270020
3.0447922098 0.1302196967 -1.0551754495 1 3.2250755029
2.5184523743 0.2852718588 -1.9996733689 3 3.2284169460
-1.9903554182 2.2430073993 1.4379422434 1 3.3256991414
-1.9397363550 1.6229952687 -2.1804104429 1 3.3392934086
-2.1162954523 0.6948057534 -2.7292795610 3 3.5228437942
-1.3771716627 -2.4692823580 -2.1202698041 2 3.5340488387
3.3509002985 1.4618913691 -0.4027621221 2 3.6780261707
-2.1496430432 2.0049107475 2.4937387574 3 3.8547847292
-2.3322536884 -2.0657746496 -2.4650063768 3 3.9727935521
3.8857179090 1.3221478708 0.5396862605 3 4.1398236581
-2.1821231545 -3.5205991943 -0.4219874276 3 4.1634545197
3.9726844800 -0.3995005143 -1.2847624376 3 4.1943339351
-1.1590777158 -3.3761073056 -2.6938555642 3 4.4719592452
-2.3838704369 3.8524749319 0.0524318939 3 4.5306898442
-2.5306722272 3.6180438441 1.1087560094 2 4.5523491812
3.9697636733 2.0819083991 -1.0598201611 3 4.6061464347
-2.3561984674 2.8285952442 -2.9961415031 2 4.7465235889
-2.2006574196 3.7532907615 -2.4361672582 3 4.9864812773
-2.0280893839 4.3876130809 1.6987561900 3 5.1234819889
-1.7825539565 2.8931495693 -3.9233873629 3 5.1904509859
-3.6019840778 3.6671642834 1.3242318356 3 5.3081044764
-3.4165365594 2.7606981048 -3.2562602295 3 5.4678521167

POTENTIALS
0 30 Zn -1 5 1.0000000000
1 6 C -1 5 4 0.0000000000
2 6 C -1 5 4 0.0000000000
3 1 H -1 5 20 0.0000000000
4 16 S -1 5 4 0.0000000000

FOLP 0 1.1500000000
FOLP 1 1.1500000000
FOLP 2 1.1500000000
FOLP 3 0.8000000000
FOLP 4 1.1500000000

PRINT 0 0 0 0 0 0

EXAFS 20

RPATH 9.0000000000

END