SCFRAMP 3.0000000000 1

CONTROL 0 1 1 1 1 1

EXCHANGE 0 0.0000000000 0.0000000000 0

DEBYE 10.0 315.0 5 corvus-Cx4C-Cx4C-LL-LL-1d0c-cluster1.dym 16 0 3

RGRID 0.0100000000

EDGE K

SCF 9.0000000000 0 100 0.0500000000 0

EGRID
e_grid -200 -10.0000000000 20.0000000000
e_grid -10 10.0000000000 0.1000000000
k_grid last 20.0000000000 0.0250000000

CHSH 4

ABSOLUTE

ATOMS
0.0000000000 0.0000000000 0.0000000000 0 0.0000000000
1.9576827651 0.2283050187 -1.2943979576 4 2.3579887750
0.1745259120 -1.6924313770 1.6351919583 4 2.3597957540
-1.7740310091 -0.2465104395 -1.5472236325 4 2.3668236915
-0.6468831762 1.9340945894 1.2022406797 4 2.3673956949
3.0134396678 -0.5374712466 0.7249269349 3 3.1456657536
2.2012618723 1.1944128111 1.9158573858 3 3.1532023907
0.0006409574 -2.6991819445 -1.6365936533 3 3.1565839711
1.4891819590 -2.8016341595 -0.0482777649 3 3.1731920227
0.3122976814 1.8172025497 2.7509710663 1 3.3117362147
-1.0590949998 -1.2823980126 -2.8688545135 1 3.3161051101
0.1045811563 0.8481179383 3.2100860322 3 3.3218810318
-0.1490455640 -0.7979338142 -3.2297103782 3 3.3301564647
3.2591861082 -0.6113296905 -0.3356873460 1 3.3329722580
1.4534263239 -2.8458178363 1.0412471776 1 3.3608515173
3.2524493736 -1.6714080452 -0.5897834986 3 3.7040351452
1.8080668599 1.9794478650 2.5662004955 2 3.7111594688
-0.7409331422 -2.7005521351 -2.4387995058 2 3.7134494456
2.4248530927 -2.5084132646 1.4036838272 3 3.7606353072
-1.6346165175 -3.2086449146 -2.0671492720 3 4.1521656349
2.0454242338 2.9429951038 2.1077362475 3 4.1578278664
-0.0679611112 2.5885592024 3.4263034468 3 4.2947424564
-1.7752886687 -1.2924936471 -3.6950096602 3 4.2982887379
2.3296681429 1.9193548444 3.5276062549 3 4.6427666929
-0.3378024257 -3.2821168278 -3.2749629081 3 4.6488475346
4.6330668700 -0.0465521273 -0.5887995074 2 4.6705631976
1.2180668600 -4.2645521205 1.4912004911 2 4.6790779614
0.2695475625 -4.6504804537 1.1075540929 3 4.7881416445
4.6871803727 1.0079748739 -0.3042731058 3 4.8039832759
4.9012464474 -0.1176925074 -1.6466667389 3 5.1718062235
1.1855154304 -4.3324873305 2.5822502639 3 5.1811108587
5.3885169854 -0.5921902437 -0.0134336475 3 5.4209763927
2.0196519774 -4.9217285471 1.1374969057 3 5.4402486351

POTENTIALS
0 30 Zn -1 5 1.0000000000
1 6 C -1 5 4 0.0000000000
2 6 C -1 5 4 0.0000000000
3 1 H -1 5 20 0.0000000000
4 16 S -1 5 4 0.0000000000

FOLP 0 1.1500000000
FOLP 1 1.1500000000
FOLP 2 1.1500000000
FOLP 3 0.8000000000
FOLP 4 1.1500000000

PRINT 0 0 0 0 0 0

EXAFS 20

RPATH 9.0000000000

END