SCFRAMP 3.0000000000 1

CONTROL 0 1 1 1 1 1

EXCHANGE 0 0.0000000000 0.0000000000 0

DEBYE 10.0 315.0 5 corvus-Cx2Cx17Cx2C-LLHH-13sb-cluster2.dym 16 0 3

RGRID 0.0100000000

EDGE K

SCF 9.0000000000 0 100 0.0500000000 0

EGRID
e_grid -200 -10.0000000000 20.0000000000
e_grid -10 10.0000000000 0.1000000000
k_grid last 20.0000000000 0.0250000000

CHSH 4

ABSOLUTE

ATOMS
0.0000000000 0.0000000000 0.0000000000 0 0.0000000000
-1.6020232293 -1.0295353520 1.3802320999 4 2.3519060606
1.6300082710 -1.6327977489 -0.5072551407 4 2.3622580786
-1.1619550892 0.7315260620 -1.9358111469 4 2.3733172576
0.9274587348 1.8532184268 1.1715319233 4 2.3805640696
0.4469532470 -1.6892915079 2.4621390477 3 3.0192054739
2.0570917010 -0.0429385472 -2.2638654232 3 3.0591758105
-2.9077194895 -0.6568205213 -1.0276744373 3 3.1531508964
-0.5915320473 -1.6018284395 2.7911004799 1 3.2720034232
2.6773888507 -0.7635140937 -1.7240406273 1 3.2747031795
2.6956437624 1.8293239069 -0.4724694840 3 3.2918305946
-2.6298587295 -0.3563786841 -2.0404449885 1 3.3476228065
2.6107224031 2.2075304903 0.5471311628 1 3.4624290376
3.4426528962 -0.1940829495 -1.1912579953 3 3.6480985138
-1.6434207094 -2.2203641612 -2.5171234875 3 3.7372127699
-0.3139931718 0.3078736478 3.7596761963 3 3.7853061958
3.6560864424 0.5441838109 1.4522841854 3 3.9714271301
-0.6827664150 -0.6922338223 3.9997731422 2 4.1162534946
-2.4427664151 -1.5862338221 -2.9102268556 2 4.1173615154
-0.9293556262 -2.6073824165 3.0555491060 3 4.1229267863
-3.4505434795 0.2502014705 -2.4325148837 3 4.2291819232
2.7130668177 3.2945726098 0.4920896746 3 4.2961718408
3.7212335859 1.6347661785 1.4107731442 2 4.3023622260
3.3342335830 -1.7162338212 -2.7002268538 2 4.6210168986
-2.1751925626 -1.3060782607 -3.9322587022 3 4.6797394808
-1.7177942869 -0.5973494206 4.3381055511 3 4.7039136169
2.5838954415 -2.2683787133 -3.2720136638 3 4.7463808376
3.6539562447 2.0137853581 2.4336539369 3 4.8300516759
-0.0873730580 -1.0856008524 4.8312221360 3 4.9524610639
-3.3626496453 -2.1795269344 -2.9473429610 3 4.9743925081
3.9571832115 -2.4458805214 -2.1758223241 3 5.1357407723
4.7042530025 1.9041423892 1.0097120963 3 5.1744828792
3.9711515844 -1.1738071287 -3.4069097759 3 5.3623597700

POTENTIALS
0 30 Zn -1 5 1.0000000000
1 6 C -1 5 4 0.0000000000
2 6 C -1 5 4 0.0000000000
3 1 H -1 5 20 0.0000000000
4 16 S -1 5 4 0.0000000000

FOLP 0 1.1500000000
FOLP 1 1.1500000000
FOLP 2 1.1500000000
FOLP 3 0.8000000000
FOLP 4 1.1500000000

PRINT 0 0 0 0 0 0

EXAFS 20

RPATH 9.0000000000

END