SCFRAMP 3.0000000000 1

CONTROL 0 1 1 1 1 1

EXCHANGE 0 0.0000000000 0.0000000000 0

DEBYE 10.0 315.0 5 corvus-Cx2Cx2Cx7C-LLHL-1a71-cluster2.dym 16 0 3

RGRID 0.0100000000

EDGE K

SCF 9.0000000000 0 100 0.0500000000 0

EGRID
e_grid -200 -10.0000000000 20.0000000000
e_grid -10 10.0000000000 0.1000000000
k_grid last 20.0000000000 0.0250000000

CHSH 4

ABSOLUTE

ATOMS
0.0000000000 0.0000000000 0.0000000000 0 0.0000000000
-1.5525979882 0.9294275084 1.5025624958 6 2.3520395532
-0.0717163224 1.2817780172 -1.9808671463 6 2.3604941787
2.0766694959 -0.0345554683 1.1360300981 6 2.3673433759
-0.3575723609 -2.2690850102 -0.5878526123 6 2.3711127073
-2.0838720432 -1.2266126612 -1.8966724839 3 3.0731852896
2.5696046485 -1.7133671159 -0.5080216522 3 3.1299490287
-1.1652187501 2.8891663164 -0.5624862290 3 3.1656606731
0.1030312117 0.4636653128 3.1852368848 3 3.2204557077
-0.9779893101 0.3188715722 3.1256042264 1 3.2905233551
-0.8536886179 -1.7861191659 2.6559431129 3 3.3125578863
3.1725275562 -0.9610878920 0.0065440590 1 3.3149153617
-1.6057424507 -2.2087511556 -1.9171857074 1 3.3365538392
-1.1573450310 2.7104393665 -1.6398426305 1 3.3726863082
3.1796439164 0.4356452644 -1.6429674971 3 3.6054492685
-2.5110381646 -2.7630386474 0.7228690283 4 3.8029245146
-1.3173729264 -1.1329509249 3.3990472907 2 3.8174037918
-3.0486424010 1.6663529145 -1.6593792051 3 3.8502586759
-0.2782856668 -1.7084368839 -3.5422637289 3 3.9425666543
3.8936270701 -0.0879509091 -1.0019526325 2 4.0214395683
-2.3765615028 -2.9513401930 -1.6940322794 3 4.1506865547
-2.5753729281 2.5240490892 -2.1449526314 2 4.1957348956
-0.7076316047 3.5873109037 -2.1132900533 3 4.2232140435
3.9013627901 -1.4959746642 0.6215493297 3 4.2243218847
-1.0213729353 -2.4689509007 -3.2899525626 2 4.2382436324
-1.4326154307 0.9578906738 3.8874720697 3 4.2523382518
-2.3972873304 -1.2947129442 3.3598880545 3 4.3257503270
4.5058411125 0.6654887917 -0.4997937513 3 4.5820599360
-3.4489817030 -3.0068021217 1.0447105808 5 4.6933734120
-0.9618314450 -1.4355130953 4.3899746436 3 4.7178061583
-2.5868071148 2.3456503698 -3.2232135027 3 4.7521313103
-0.5296785463 -3.4445466357 -3.3266147138 3 4.8178653304
4.5491607931 -0.6894005634 -1.6412840297 3 4.8850742394
-3.1838147262 3.4115029068 -1.9390518152 3 5.0532118732
-1.8021296504 -2.4516785517 -4.0585225142 3 5.0724751351
-3.3620364222 -3.2204645856 2.0323515115 4 5.0798753644
-3.6873394952 -3.8804129269 0.5872557205 4 5.3850669743

POTENTIALS
0 30 Zn -1 5 1.0000000000
1 6 C -1 5 4 0.0000000000
2 6 C -1 5 4 0.0000000000
3 1 H -1 5 20 0.0000000000
4 1 H -1 5 3 0.0000000000
5 7 N -1 5 1 0.0000000000
6 16 S -1 5 4 0.0000000000

FOLP 0 1.1500000000
FOLP 1 1.1500000000
FOLP 2 1.1500000000
FOLP 3 0.8000000000
FOLP 4 0.8000000000
FOLP 5 1.1500000000
FOLP 6 1.1500000000

PRINT 0 0 0 0 0 0

EXAFS 20

RPATH 9.0000000000

END