SCFRAMP 3.0000000000 1

CONTROL 0 1 1 1 1 1

EXCHANGE 0 0.0000000000 0.0000000000 0

DEBYE 10.0 315.0 5 corvus-1z84-resseq4-alpha-0-beta-neg10-gamma-0.dym 16 0 3

RGRID 0.0100000000

EDGE K

SCF 9.0000000000 0 100 0.0500000000 0

EGRID
e_grid -200 -10.0000000000 20.0000000000
e_grid -10 10.0000000000 0.1000000000
k_grid last 20.0000000000 0.0250000000

CHSH 4

ABSOLUTE

ATOMS
0.0000000000 0.0000000000 0.0000000000 0 0.0000000000
0.5010890300 1.5678879100 -1.2473400900 9 2.0652409095
1.7924508500 -0.3602857100 0.9696047500 9 2.0694973336
-0.6205351200 -1.8710579100 -1.1765193500 10 2.2956740445
-1.5257723400 0.7798329100 1.5302855600 10 2.2973668615
0.4963284400 2.7108315200 1.0765786000 6 2.9587110255
0.6420560900 1.3773731800 -2.5458621800 3 2.9649295336
2.0905144100 0.2704357700 2.0892477400 3 2.9678851263
-1.8386367300 -1.6008451600 1.7405670300 6 2.9954738919
-2.7975619700 -1.3628121000 -0.2832770600 6 3.1247168974
1.4553618600 0.9796504200 2.5959294600 6 3.1331522226
1.0387587000 2.8044550700 -0.9541947500 2 3.1391838903
0.3177455700 0.5041517300 -3.0892566100 6 3.1462100401
2.8553740200 -1.1912975300 0.6766144500 2 3.1670424236
2.3867491900 -0.6103526000 -2.0161065900 6 3.1833610814
-1.9648036100 -0.7554646400 2.4207633900 4 3.2080017828
-2.4372249600 -1.7102268000 -1.2538555700 4 3.2306493161
1.9437186600 -2.6255793500 -0.5754249300 6 3.3170503467
-2.5511404300 0.2329156400 -2.1851104800 6 3.3670870198
1.0426465800 3.3893793600 0.4177816700 4 3.5706506215
-1.2584599600 -0.8956373600 3.2428798200 6 3.5919573047
2.8938845000 -2.0867427700 -0.5107679100 4 3.6041568703
-2.9205909800 -0.7829084000 -2.3490691400 5 3.8289584824
3.1544090200 -1.3629084000 -1.8270691400 5 3.8917858644
1.2497775500 2.4295614400 -3.1006810300 8 4.1326668829
3.2946770000 -0.1078673100 2.5270879800 8 4.1536376286
-2.8351573200 -2.7161193500 -1.4090948600 6 4.1714469524
3.0157317500 2.7349404300 1.0420286900 6 4.2024232217
1.5111590800 3.3449254100 -2.1177391400 1 4.2375637846
3.7981948000 -1.0327454500 1.6518390400 1 4.2686554226
-2.5677901200 -1.1143135800 -3.3287356700 6 4.3492208516
0.4737850300 4.3244128700 0.4061977400 6 4.3692122321
2.4366690300 3.6594958900 0.9758395800 5 4.5035018615
-3.3835909800 -0.7139084000 2.9519308600 5 4.5466744909
4.1245459700 -0.8604295500 -1.8108556600 6 4.5860022558
3.1475359900 -2.0689446500 -2.6600912500 6 4.6112471449
3.6719480400 -2.8355709800 -0.3429178300 6 4.6520165336
-4.1019905000 -0.6156912200 2.1341873700 6 4.6647783946
-4.0148456900 -0.7466988800 -2.3729666800 6 4.7230833146
1.4708958900 2.5292270400 -4.0791286500 7 5.0199417011
3.7457536600 0.2275334300 3.3635837200 7 5.0394580447
-3.5250547000 0.1342930000 3.6267471200 6 5.0593813772
2.3705240100 4.0923809500 1.9762503300 6 5.1256737400
1.9931418300 4.2856235200 -2.3253093600 6 5.2674706387
2.9863420600 4.3569366800 0.3398731500 6 5.2930756551
-3.6173305800 -1.6293801400 3.5045002400 6 5.2935321004
4.7591973500 -1.4975361800 1.7957980700 6 5.3025903797

POTENTIALS
0 30 Zn -1 5 1.0000000000
1 6 C -1 5 2 0.0000000000
2 6 C -1 5 2 0.0000000000
3 6 C -1 5 2 0.0000000000
4 6 C -1 5 4 0.0000000000
5 6 C -1 5 4 0.0000000000
6 1 H -1 5 24 0.0000000000
7 1 H -1 5 2 0.0000000000
8 7 N -1 5 2 0.0000000000
9 7 N -1 5 2 0.0000000000
10 16 S -1 5 2 0.0000000000

FOLP 0 1.1500000000
FOLP 1 1.1500000000
FOLP 2 1.1500000000
FOLP 3 1.1500000000
FOLP 4 1.1500000000
FOLP 5 1.1500000000
FOLP 6 0.8000000000
FOLP 7 0.8000000000
FOLP 8 1.1500000000
FOLP 9 1.1500000000
FOLP 10 1.1500000000

PRINT 0 0 0 0 0 0

EXAFS 20

RPATH 9.0000000000

END