SCFRAMP 3.0000000000 1

CONTROL 0 1 1 1 1 1

EXCHANGE 0 0.0000000000 0.0000000000 0

DEBYE 10.0 315.0 5 corvus-1z84-resseq4-alpha-10-beta-0-gamma-0.dym 16 0 3

RGRID 0.0100000000

EDGE K

SCF 9.0000000000 0 100 0.0500000000 0

EGRID
e_grid -200 -10.0000000000 20.0000000000
e_grid -10 10.0000000000 0.1000000000
k_grid last 20.0000000000 0.0250000000

CHSH 4

ABSOLUTE

ATOMS
0.0000000000 0.0000000000 0.0000000000 0 0.0000000000
0.5010890300 1.5678879100 -1.2473400900 9 2.0652409095
1.7924508500 -0.3602857100 0.9696047500 9 2.0694973336
-0.6205351200 -1.8710579100 -1.1765193500 10 2.2956740445
-1.5257723400 0.7798329100 1.5302855600 10 2.2973668615
1.0020098000 2.5290229400 1.1047310500 6 2.9360537058
2.0905144100 0.2704357700 2.0892477400 3 2.9678851263
0.3448319500 1.4831839900 -2.5552912200 3 2.9746019971
-1.8386367300 -1.6008451600 1.7405670300 6 2.9954738919
-2.7975619700 -1.3628121000 -0.2832770600 6 3.1247168974
1.4553618600 0.9796504200 2.5959294600 6 3.1331522226
-0.0741484700 0.6408175100 -3.0824009100 6 3.1491809168
1.0613596900 2.8004564600 -0.9808954200 2 3.1513801105
2.8553740200 -1.1912975300 0.6766144500 2 3.1670424236
2.3867491900 -0.6103526000 -2.0161065900 6 3.1833610814
-1.9648036100 -0.7554646400 2.4207633900 4 3.2080017828
-2.4372249600 -1.7102268000 -1.2538555700 4 3.2306493161
1.9437186600 -2.6255793500 -0.5754249300 6 3.3170503467
-2.5511404300 0.2329156400 -2.1851104800 6 3.3670870198
1.3657984400 3.2786786800 0.3986303600 4 3.5740796619
-1.2584599600 -0.8956373600 3.2428798200 6 3.5919573047
2.8938845000 -2.0867427700 -0.5107679100 4 3.6041568703
-2.9205909800 -0.7829084000 -2.3490691400 5 3.8289584824
3.1544090200 -1.3629084000 -1.8270691400 5 3.8917858644
0.7831175700 2.5997552500 -3.1430188900 8 4.1533803379
3.2946770000 -0.1078673100 2.5270879800 8 4.1536376286
-2.8351573200 -2.7161193500 -1.4090948600 6 4.1714469524
1.2407348500 3.4478796300 -2.1715984300 1 4.2594761007
3.7981948000 -1.0327454500 1.6518390400 1 4.2686554226
0.7868300700 4.1865644700 0.5950083700 6 4.3012159421
-2.5677901200 -1.1143135800 -3.3287356700 6 4.3492208516
3.4448529300 2.6639255100 0.5018324700 6 4.3835313002
-3.3835909800 -0.7139084000 2.9519308600 5 4.5466744909
4.1245459700 -0.8604295500 -1.8108556600 6 4.5860022558
2.8436803600 3.5650992300 0.6466595200 5 4.6059330265
3.1475359900 -2.0689446500 -2.6600912500 6 4.6112471449
3.6719480400 -2.8355709800 -0.3429178300 6 4.6520165336
-4.1019905000 -0.6156912200 2.1341873700 6 4.6647783946
-4.0148456900 -0.7466988800 -2.3729666800 6 4.7230833146
3.7457536600 0.2275334300 3.3635837200 7 5.0394580447
0.7712383200 2.7831535600 -4.1341849900 7 5.0430385500
-3.5250547000 0.1342930000 3.6267471200 6 5.0593813772
2.9983969400 3.9171914900 1.6687554600 6 5.2076403644
1.6391054900 4.4215055500 -2.4032428000 6 5.2926320571
-3.6173305800 -1.6293801400 3.5045002400 6 5.2935321004
4.7591973500 -1.4975361800 1.7957980700 6 5.3025903797
3.2155129200 4.3319785500 -0.0364613100 6 5.3950802518

POTENTIALS
0 30 Zn -1 5 1.0000000000
1 6 C -1 5 2 0.0000000000
2 6 C -1 5 2 0.0000000000
3 6 C -1 5 2 0.0000000000
4 6 C -1 5 4 0.0000000000
5 6 C -1 5 4 0.0000000000
6 1 H -1 5 24 0.0000000000
7 1 H -1 5 2 0.0000000000
8 7 N -1 5 2 0.0000000000
9 7 N -1 5 2 0.0000000000
10 16 S -1 5 2 0.0000000000

FOLP 0 1.1500000000
FOLP 1 1.1500000000
FOLP 2 1.1500000000
FOLP 3 1.1500000000
FOLP 4 1.1500000000
FOLP 5 1.1500000000
FOLP 6 0.8000000000
FOLP 7 0.8000000000
FOLP 8 1.1500000000
FOLP 9 1.1500000000
FOLP 10 1.1500000000

PRINT 0 0 0 0 0 0

EXAFS 20

RPATH 9.0000000000

END