SCFRAMP 3.0000000000 1

CONTROL 0 1 1 1 1 1

EXCHANGE 0 0.0000000000 0.0000000000 0

DEBYE 10.0 315.0 5 corvus-Cx2Cx35Hx54H-LLLL-1z84-cluster2.dym 16 0 3

RGRID 0.0100000000

EDGE K

SCF 9.0000000000 0 100 0.0500000000 0

EGRID
e_grid -200 -10.0000000000 20.0000000000
e_grid -10 10.0000000000 0.1000000000
k_grid last 20.0000000000 0.0250000000

CHSH 4

ABSOLUTE

ATOMS
0.0000000000 0.0000000000 0.0000000000 0 0.0000000000
0.5010890335 1.5678879158 -1.2473400927 9 2.0652409164
1.7924508520 -0.3602857043 0.9696047493 9 2.0694973340
-0.6205351223 -1.8710579089 -1.1765193515 10 2.2956740450
-1.5257723401 0.7798329152 1.5302855557 10 2.2973668604
0.5814253118 2.6594878611 1.0997637561 6 2.9360537113
2.0905144148 0.2704357717 2.0892477442 3 2.9678851328
0.5310518188 1.4209081910 -2.5587616015 3 2.9746019994
-1.8386367313 -1.6008451552 1.7405670272 6 2.9954738885
-2.7975619661 -1.3628120996 -0.2832770576 6 3.1247168935
1.4553618648 0.9796504258 2.5959294609 6 3.1331522274
0.2747127641 0.5203125230 -3.0937272432 6 3.1491809220
0.8918103046 2.8622212665 -0.9713703946 2 3.1513801169
2.8553740190 -1.1912975242 0.6766144530 2 3.1670424212
2.3867491907 -0.6103525974 -2.0161065872 6 3.1833610796
-1.9648036081 -0.7554646417 2.4207633925 4 3.2080017839
-2.4372249622 -1.7102267940 -1.2538555662 4 3.2306493131
1.9437186633 -2.6255793467 -0.5754249291 6 3.3170503459
-2.5511404240 0.2329156381 -2.1851104780 6 3.3670870138
0.9581452811 3.4186592217 0.4108189156 4 3.5740796627
-1.2584599534 -0.8956373583 3.2428798249 6 3.5919573063
2.8938845042 -2.0867427644 -0.5107679148 4 3.6041568711
-2.9205909779 -0.7829083970 -2.3490691402 5 3.8289584803
3.1544090216 -1.3629083971 -1.8270691395 5 3.8917858645
0.9278803697 2.5568178606 -3.1388355649 8 4.1533803409
3.2946769982 -0.1078673030 2.5270879783 8 4.1536376259
-2.8351573144 -2.7161193494 -1.4090948580 6 4.1714469476
1.1621533999 3.4829194037 -2.1591221761 1 4.2594761027
3.7981947991 -1.0327454513 1.6518390434 1 4.2686554235
0.2684525970 4.2652663779 0.4856897458 6 4.3012159444
-2.5677901189 -1.1143135815 -3.3287356680 6 4.3492208497
3.0563925325 3.0353570376 0.8126616955 6 4.3835313036
-3.3835909777 -0.7139083973 2.9519308603 5 4.5466744889
4.1245459687 -0.8604295459 -1.8108556642 6 4.5860022555
2.3524090212 3.8710916017 0.8339308597 5 4.6059330293
3.1475359957 -2.0689446446 -2.6600912454 6 4.6112471437
3.6719480465 -2.8355709755 -0.3429178328 6 4.6520165362
-4.1019904996 -0.6156912197 2.1341873688 6 4.6647783937
-4.0148456922 -0.7466988784 -2.3729666831 6 4.7230833177
3.7457536660 0.2275334361 3.3635837152 7 5.0394580462
1.0303218677 2.7029010587 -4.1309805802 7 5.0430385521
-3.5250546964 0.1342930002 3.6267471234 6 5.0593813771
2.3319535806 4.2735203781 1.8489278834 6 5.2076403718
1.4864942432 4.4850279690 -2.3847039818 6 5.2926320578
-3.6173305822 -1.6293801394 3.5045002386 6 5.2935321007
4.7591973495 -1.4975361823 1.7957980709 6 5.3025903802
2.7322191231 4.6490499470 0.1679409950 6 5.3950802519

POTENTIALS
0 30 Zn -1 5 1.0000000000
1 6 C -1 5 2 0.0000000000
2 6 C -1 5 2 0.0000000000
3 6 C -1 5 2 0.0000000000
4 6 C -1 5 4 0.0000000000
5 6 C -1 5 4 0.0000000000
6 1 H -1 5 24 0.0000000000
7 1 H -1 5 2 0.0000000000
8 7 N -1 5 2 0.0000000000
9 7 N -1 5 2 0.0000000000
10 16 S -1 5 2 0.0000000000

FOLP 0 1.1500000000
FOLP 1 1.1500000000
FOLP 2 1.1500000000
FOLP 3 1.1500000000
FOLP 4 1.1500000000
FOLP 5 1.1500000000
FOLP 6 0.8000000000
FOLP 7 0.8000000000
FOLP 8 1.1500000000
FOLP 9 1.1500000000
FOLP 10 1.1500000000

PRINT 0 0 0 0 0 0

EXAFS 20

RPATH 9.0000000000

END