SCFRAMP 3.0000000000 1

CONTROL 0 1 1 1 1 1

EXCHANGE 0 0.0000000000 0.0000000000 0

DEBYE 10.0 315.0 5 corvus-1z84-resseq4-alpha-neg10-beta-0-gamma-0.dym 16 0 3

RGRID 0.0100000000

EDGE K

SCF 9.0000000000 0 100 0.0500000000 0

EGRID
e_grid -200 -10.0000000000 20.0000000000
e_grid -10 10.0000000000 0.1000000000
k_grid last 20.0000000000 0.0250000000

CHSH 4

ABSOLUTE

ATOMS
0.0000000000 0.0000000000 0.0000000000 0 0.0000000000
0.5010890300 1.5678879100 -1.2473400900 9 2.0652409095
1.7924508500 -0.3602857100 0.9696047500 9 2.0694973336
-0.6205351200 -1.8710579100 -1.1765193500 10 2.2956740445
-1.5257723400 0.7798329100 1.5302855600 10 2.2973668615
0.1542023800 2.7436513800 1.0339294600 6 2.9360537116
2.0905144100 0.2704357700 2.0892477400 3 2.9678851263
0.7214314400 1.3789626500 -2.5350060600 3 2.9746019964
-1.8386367300 -1.6008451600 1.7405670300 6 2.9954738919
-2.7975619700 -1.3628121000 -0.2832770600 6 3.1247168974
1.4553618600 0.9796504200 2.5959294600 6 3.1331522226
0.6324054900 0.4377489300 -3.0538139500 6 3.1491809206
0.7171032900 2.9056670300 -0.9869440800 2 3.1513801159
2.8553740200 -1.1912975300 0.6766144500 2 3.1670424236
2.3867491900 -0.6103526000 -2.0161065900 6 3.1833610814
-1.9648036100 -0.7554646400 2.4207633900 4 3.2080017828
-2.4372249600 -1.7102268000 -1.2538555700 4 3.2306493161
1.9437186600 -2.6255793500 -0.5754249300 6 3.3170503467
-2.5511404300 0.2329156400 -2.1851104800 6 3.3670870198
0.5403975900 3.5142728300 0.3631836600 4 3.5740796647
-1.2584599600 -0.8956373600 3.2428798200 6 3.5919573047
2.8938845000 -2.0867427700 -0.5107679100 4 3.6041568703
-2.9205909800 -0.7829084000 -2.3490691400 5 3.8289584824
3.1544090200 -1.3629084000 -1.8270691400 5 3.8917858644
1.0743955900 2.5298914600 -3.1138226600 8 4.1533803391
3.2946770000 -0.1078673100 2.5270879800 8 4.1536376286
-2.8351573200 -2.7161193500 -1.4090948600 6 4.1714469524
1.0794461300 3.5097110300 -2.1586711700 1 4.2594761042
3.7981948000 -1.0327454500 1.6518390400 1 4.2686554226
-0.2358921700 4.2838003900 0.3063782900 6 4.3012159390
-2.5677901200 -1.1143135800 -3.3287356700 6 4.3492208516
2.5939020800 3.3735006600 1.0519087300 6 4.3835313025
-3.3835909800 -0.7139084000 2.9519308600 5 4.5466744909
4.1245459700 -0.8604295500 -1.8108556600 6 4.5860022558
1.8118213300 4.1288018600 0.9407006500 5 4.6059330264
3.1475359900 -2.0689446500 -2.6600912500 6 4.6112471449
3.6719480400 -2.8355709800 -0.3429178300 6 4.6520165336
-4.1019905000 -0.6156912200 2.1341873700 6 4.6647783946
-4.0148456900 -0.7466988800 -2.3729666800 6 4.7230833146
3.7457536600 0.2275334300 3.3635837200 7 5.0394580447
1.2934636300 2.6511749400 -4.0902886300 7 5.0430385485
-3.5250547000 0.1342930000 3.6267471200 6 5.0593813772
1.6145117800 4.5621316400 1.9234928700 6 5.2076403687
1.3270954200 4.5323608600 -2.3892419100 6 5.2926320601
-3.6173305800 -1.6293801400 3.5045002400 6 5.2935321004
4.7591973500 -1.4975361800 1.7957980700 6 5.3025903797
2.1960674600 4.9192293500 0.2921663800 6 5.3950802478

POTENTIALS
0 30 Zn -1 5 1.0000000000
1 6 C -1 5 2 0.0000000000
2 6 C -1 5 2 0.0000000000
3 6 C -1 5 2 0.0000000000
4 6 C -1 5 4 0.0000000000
5 6 C -1 5 4 0.0000000000
6 1 H -1 5 24 0.0000000000
7 1 H -1 5 2 0.0000000000
8 7 N -1 5 2 0.0000000000
9 7 N -1 5 2 0.0000000000
10 16 S -1 5 2 0.0000000000

FOLP 0 1.1500000000
FOLP 1 1.1500000000
FOLP 2 1.1500000000
FOLP 3 1.1500000000
FOLP 4 1.1500000000
FOLP 5 1.1500000000
FOLP 6 0.8000000000
FOLP 7 0.8000000000
FOLP 8 1.1500000000
FOLP 9 1.1500000000
FOLP 10 1.1500000000

PRINT 0 0 0 0 0 0

EXAFS 20

RPATH 9.0000000000

END